data_262903-ICSD
#?2014 by Fachinformationszentrum Karlsruhe, and the U.S. Secretary of 
#Commerce on behalf of the United States.  All rights reserved.
_database_code_ICSD                262903
_audit_creation_date               2012/08/01
_chemical_name_systematic          'Sodium Lanthanum Aqua Phosphonate'
_chemical_formula_structural       'Na La (H2 O) (C H2 (P O3)2)'
_chemical_formula_sum              'C1 H4 La1 Na1 O7 P2'
_publ_section_title
;
Periodic trends in lanthanide and actinide phosphonates: 
discontinuity between plutonium and americium
;
loop_
_citation_id
_citation_journal_abbrev
_citation_year
_citation_journal_volume
_citation_journal_issue
_citation_page_first
_citation_page_last
_citation_journal_id_ASTM
primary 'Inorganic Chemistry' 2012 51 12 6906 6915 INOCAJ
_publ_author_name
;
Diwu Juan;Grant, D.J.;Wang Shuao;Gagliardi, L.;Albrecht-Schmitt, T.E.
;
_cell_length_a                     6.810(3)
_cell_length_b                     15.159(7)
_cell_length_c                     6.811(3)
_cell_angle_alpha                  90.00
_cell_angle_beta                   90.914(6)
_cell_angle_gamma                  90.00
_cell_volume                       703.03
_cell_formula_units_Z              4
_symmetry_space_group_name_H-M     'P 1 21/c 1'
_symmetry_Int_Tables_number        14
_refine_ls_R_factor_all            .0349
loop_
_symmetry_equiv_pos_site_id
_symmetry_equiv_pos_as_xyz
  1	'x, -y+.5, z+.5'
  2	'-x, -y, -z'
  3	'-x, y+.5, -z+.5'
  4	'x, y, z'
loop_
_atom_type_symbol
_atom_type_oxidation_number
C4+	4
H1-	-1
H1+	1
La3+	3
Na1+	1
O2-	-2
P3+	3
loop_
_atom_site_label
_atom_site_type_symbol
_atom_site_symmetry_multiplicity
_atom_site_Wyckoff_symbol
_atom_site_fract_x
_atom_site_fract_y
_atom_site_fract_z
_atom_site_occupancy
_atom_site_attached_hydrogens
_atom_site_U_iso_or_equiv
La1 La3+ 4 e 0.32826(6) 0.09932(3) 0.10540(6) 1 0 0.00804(12) 
P1 P3+ 4 e 0.1723(2) -0.09966(13) 0.1347(2) 1 0 0.0076(3) 
P2 P3+ 4 e 0.4756(3) 0.15714(12) -0.3919(3) 1 0 0.0082(4) 
Na1 Na1+ 4 e 0.8117(4) 0.03083(19) 0.3639(4) 1 0 0.0146(6) 
O1 O2- 4 e 0.3666(6) 0.0957(3) -0.2546(6) 1 0 0.0118(10) 
O2 O2- 4 e 0.0079(6) 0.1397(3) -0.0381(7) 1 0 0.0111(10) 
O3 O2- 4 e 0.6849(6) 0.0642(3) 0.0210(6) 1 0 0.0076(10) 
O4 O2- 4 e 0.3685(7) 0.2558(3) 0.0749(7) 1 0 0.0135(11) 
O5 O2- 4 e 0.0648(8) 0.1649(3) 0.3641(8) 1 0 0.0189(12) 
O6 O2- 4 e 0.1302(7) -0.0225(3) 0.2739(7) 1 0 0.0101(10) 
O7 O2- 4 e 0.5197(6) 0.1120(3) 0.4129(6) 1 0 0.0087(10) 
C1 C4+ 4 e 0.2939(9) -0.1854(4) 0.2713(10) 1 0 0.0108(15) 
H1 H1- 4 e 0.3178 -0.2342 0.1826 1 0 0.013 
H2 H1- 4 e 0.2046 -0.2064 0.3705 1 0 0.013 
H3 H1+ 4 e 0.022(10) 0.209(3) 0.289(8) 1 0 0.013 
H4 H1+ 4 e 0.137(8) 0.118(3) 0.345(10) 1 0 0.013 

loop_
_atom_site_aniso_label
_atom_site_aniso_type_symbol
_atom_site_aniso_U_11
_atom_site_aniso_U_22
_atom_site_aniso_U_33
_atom_site_aniso_U_12
_atom_site_aniso_U_13
_atom_site_aniso_U_23
La1 La3+ 0.00772(19) 0.0091(2) 0.00735(19) -0.00051(19) 0.00000(13) 
-0.00020(19)
P1 P3+ 0.0065(8) 0.0081(8) 0.0081(8) 0.0014(8) -0.0001(6) -0.0005(8)
P2 P3+ 0.0084(9) 0.0088(9) 0.0075(9) 0.0001(7) -0.0008(7) 0.0001(7)
Na1 Na1+ 0.0099(14) 0.0206(16) 0.0132(14) 0.0026(12) -0.0003(11) 
-0.0028(12)
O1 O2- 0.011(2) 0.016(2) 0.008(2) -0.007(2) 0.0012(17) 0.001(2)
O2 O2- 0.007(2) 0.014(2) 0.012(2) -0.0002(19) 0.0011(18) -0.0039(19)
O3 O2- 0.007(2) 0.008(2) 0.008(2) -0.0014(18) 0.0059(18) 0.0011(17)
O4 O2- 0.016(2) 0.011(2) 0.013(2) -0.0029(19) -0.001(2) -0.0010(19)
O5 O2- 0.019(3) 0.015(3) 0.023(3) 0.006(2) 0.003(2) 0.000(2)
O6 O2- 0.010(2) 0.010(2) 0.010(2) -0.0005(19) 0.0043(18) -0.0013(18)
O7 O2- 0.011(2) 0.010(2) 0.005(2) 0.0012(19) 0.0008(17) -0.0034(17)
C1 C4+ 0.010(3) 0.012(3) 0.011(3) -0.002(2) -0.001(2) 0.001(2)
#End of data_262903-ICSD


