data_109683-ICSD
#?2014 by Fachinformationszentrum Karlsruhe, and the U.S. Secretary of 
#Commerce on behalf of the United States.  All rights reserved.
_database_code_ICSD                109683
_audit_creation_date               2008/02/01
_chemical_name_systematic          'Pentapotassium Octaformatoterbiate'
_chemical_formula_structural       'K5 (Tb (H C O O)8)'
_chemical_formula_sum              'C8 H8 K5 O16 Tb1'
_publ_section_title
;
Stereochemistry of binary formates. Crytal structure of tripotassium 
hexakis(formato)erbate(III)-dihydrate and pentapotassium 
octakis(formato)terbate(III)
;
loop_
_citation_id
_citation_journal_abbrev
_citation_year
_citation_journal_volume
_citation_page_first
_citation_page_last
_citation_journal_id_ASTM
primary 'Koordinatsionnaya Khimiya (= Coordination Chemistry (USSR))'
 1988 14 850 854 KOKHDC
_publ_author_name
;
Antsyshkina, A.S.;Porai Koshits, M.A.;Ostrikova, V.N.
;
_cell_length_a                     11.843(2)
_cell_length_b                     11.880(2)
_cell_length_c                     14.894(4)
_cell_angle_alpha                  90
_cell_angle_beta                   109.07(2)
_cell_angle_gamma                  90
_cell_volume                       1980.51
_cell_formula_units_Z              4
_symmetry_space_group_name_H-M     'C 1 2/c 1'
_symmetry_Int_Tables_number        15
_refine_ls_R_factor_all            .046
loop_
_symmetry_equiv_pos_site_id
_symmetry_equiv_pos_as_xyz
  1	'x, -y, z+.5'
  2	'-x, -y, -z'
  3	'-x, y, -z+.5'
  4	'x, y, z'
  5	'x+.5, -y+.5, z+.5'
  6	'-x+.5, -y+.5, -z'
  7	'-x+.5, y+.5, -z+.5'
  8	'x+.5, y+.5, z'
loop_
_atom_type_symbol
_atom_type_oxidation_number
C2+	2
H1+	1
K1+	1
O2-	-2
Tb3+	3
loop_
_atom_site_label
_atom_site_type_symbol
_atom_site_symmetry_multiplicity
_atom_site_Wyckoff_symbol
_atom_site_fract_x
_atom_site_fract_y
_atom_site_fract_z
_atom_site_occupancy
_atom_site_attached_hydrogens
Tb1 Tb3+ 4 e 0.00000 0.19709(4) 0.25000 1. 0 
K1 K1+ 4 a 0.50000 0.50000 0.50000 1. 0 
K2 K1+ 8 f 0.5997(2) 0.1992(2) 0.4879(2) 1. 0 
K3 K1+ 8 f 0.8074(1) 0.5959(1) 0.5007(1) 1. 0 
O1 O2- 8 f 0.1934(5) 0.2549(5) 0.3501(4) 1. 0 
O2 O2- 8 f 0.3822(5) 0.3087(5) 0.4214(5) 1. 0 
O3 O2- 8 f 0.0220(5) 0.3522(5) 0.1522(5) 1. 0 
O4 O2- 8 f 0.1753(6) -0.1334(5) 0.3874(5) 1. 0 
O5 O2- 8 f 0.0970(5) 0.0379(4) 0.3479(4) 1. 0 
O6 O2- 8 f 0.1186(5) 0.1388(5) 0.1539(4) 1. 0 
O7 O2- 8 f 0.2579(6) 0.0808(6) 0.1012(5) 1. 0 
O8 O2- 8 f 0.0638(6) 0.5215(5) 0.1086(5) 1. 0 
C1 C2+ 8 f 0.2958(7) 0.2884(6) 0.3491(6) 1. 0 
C2 C2+ 8 f 0.0682(8) 0.4524(7) 0.1674(6) 1. 0 
C3 C2+ 8 f 0.1295(8) -0.0619(6) 0.3310(6) 1. 0 
C4 C2+ 8 f 0.2240(7) 0.1111(7) 0.1635(6) 1. 0 
H1 H1+ 8 f 0.30700 0.29900 0.28300 1. 0 
H2 H1+ 8 f 0.11400 0.47400 0.19300 1. 0 
H3 H1+ 8 f 0.11400 -0.08200 0.25900 1. 0 
H4 H1+ 8 f 0.28700 0.11500 0.23200 1. 0 

#End of data_109683-ICSD


