data_59806-ICSD
#?2014 by Fachinformationszentrum Karlsruhe, and the U.S. Secretary of 
#Commerce on behalf of the United States.  All rights reserved.
_database_code_ICSD                59806
_audit_creation_date               2005/10/01
_audit_update_record               2012/02/01
_chemical_name_systematic
;
Diaqua-mue4-oxalato-di-mue6-phosphato(V)-tetrazinc
;
_chemical_formula_structural       '(Zn4 (C2 O4) (P O4)2 (H2 O)2)'
_chemical_formula_sum              'C2 H4 O14 P2 Zn4'
_publ_section_title
;
Poly[diaqua-mue4-oxalato-di-mue6-phosphato-tetrazinc]
;
loop_
_citation_id
_citation_journal_abbrev
_citation_year
_citation_journal_volume
_citation_page_first
_citation_page_last
_citation_journal_id_ASTM
primary 'Acta Crystallographica, Section C: Crystal Structure Communications'
 2004 60 m504 m506 ACSCEE
_publ_author_name                  'Zhong, Y.-J.;Sun, Y.-Q;Yang, G.-Y.'
_cell_length_a                     7.8752(6)
_cell_length_b                     4.7971(2)
_cell_length_c                     14.0735(6)
_cell_angle_alpha                  90.00
_cell_angle_beta                   95.835(7)
_cell_angle_gamma                  90.00
_cell_volume                       528.92
_cell_formula_units_Z              2
_symmetry_space_group_name_H-M     'P 1 21/n 1'
_symmetry_Int_Tables_number        14
_refine_ls_R_factor_all            .0258
loop_
_symmetry_equiv_pos_site_id
_symmetry_equiv_pos_as_xyz
  1	'-x+.5, y+.5, -z+.5'
  2	'-x, -y, -z'
  3	'x+.5, -y+.5, z+.5'
  4	'x, y, z'
loop_
_atom_type_symbol
_atom_type_oxidation_number
C3+	3
H1+	1
O2-	-2
P5+	5
Zn2+	2
loop_
_atom_site_label
_atom_site_type_symbol
_atom_site_symmetry_multiplicity
_atom_site_Wyckoff_symbol
_atom_site_fract_x
_atom_site_fract_y
_atom_site_fract_z
_atom_site_occupancy
_atom_site_attached_hydrogens
_atom_site_U_iso_or_equiv
Zn1 Zn2+ 4 e 0.59286(5) 0.02674(8) 0.69456(3) 1 0 0.01057(17) 
Zn2 Zn2+ 4 e 0.29578(5) 0.02375(8) 0.86606(3) 1 0 0.01410(17) 
P1 P5+ 4 e 0.49638(11) 0.47727(17) 0.80332(6) 1 0 0.0086(2) 
O1 O2- 4 e 0.4934(3) 0.7968(5) 0.80199(15) 1 0 0.0116(5) 
O2 O2- 4 e 0.3795(3) 0.3433(5) 0.72028(16) 1 0 0.0151(5) 
O3 O2- 4 e 0.6741(3) 0.3599(5) 0.78817(15) 1 0 0.0130(5) 
O4 O2- 4 e 0.4363(3) 0.3643(5) 0.89588(16) 1 0 0.0133(5) 
O5 O2- 4 e 0.6375(3) 0.2265(5) 0.56664(16) 1 0 0.0161(5) 
O6 O2- 4 e 0.5693(3) 0.2002(5) 0.40820(16) 1 0 0.0146(5) 
C1 C3+ 4 e 0.5599(4) 0.1228(7) 0.4932(2) 1 0 0.0119(7) 
O7 O2- 4 e 0.2942(3) -0.1580(6) 0.99234(17) 1 0 0.0179(6) 
H1 H1+ 4 e 0.377(6) -0.254(10) 1.022(3) 1 0 0.040(13) 
H2 H1+ 4 e 0.278(8) -0.025(10) 1.030(5) 1 0 0.061(19) 

loop_
_atom_site_aniso_label
_atom_site_aniso_type_symbol
_atom_site_aniso_U_11
_atom_site_aniso_U_22
_atom_site_aniso_U_33
_atom_site_aniso_U_12
_atom_site_aniso_U_13
_atom_site_aniso_U_23
Zn1 Zn2+ 0.0133(3) 0.0104(3) 0.0083(3) -0.00024(14) 0.00247(18) 
-0.00043(14)
Zn2 Zn2+ 0.0162(3) 0.0149(3) 0.0110(3) -0.00427(15) 0.00030(19) 
-0.00074(14)
P1 P5+ 0.0106(4) 0.0079(5) 0.0077(4) 0.0001(3) 0.0020(4) 0.0007(3)
O1 O2- 0.0160(11) 0.0067(12) 0.0128(11) -0.0006(9) 0.0052(9) -0.0013(9)
O2 O2- 0.0178(11) 0.0097(13) 0.0166(12) 0.0017(9) -0.0044(10) 0.0001(10)
O3 O2- 0.0116(11) 0.0107(12) 0.0172(12) 0.0009(9) 0.0039(9) -0.0024(10)
O4 O2- 0.0182(11) 0.0125(13) 0.0101(11) -0.0020(10) 0.0058(9) 0.0005(10)
O5 O2- 0.0201(12) 0.0160(13) 0.0119(12) -0.0055(10) 0.0008(9) -0.0022(10)
O6 O2- 0.0195(12) 0.0146(13) 0.0097(12) -0.0032(10) 0.0020(9) 0.0012(10)
C1 C3+ 0.0122(15) 0.0093(16) 0.0145(17) 0.0045(14) 0.0029(12) 0.0006(14)
O7 O2- 0.0237(14) 0.0163(15) 0.0141(12) 0.0063(11) 0.0032(11) 0.0027(11)
#End of data_59806-ICSD


