data_30920-ICSD
#?2014 by Fachinformationszentrum Karlsruhe, and the U.S. Secretary of 
#Commerce on behalf of the United States.  All rights reserved.
_database_code_ICSD                30920
_audit_creation_date               1986/04/14
_audit_update_record               2007/08/01
_chemical_name_systematic
;
Sodium Thiocyanate Dihydrate - Alpha
;
_chemical_formula_structural       'Na (S C N) (H2 O)2'
_chemical_formula_sum              'C1 H4 N1 Na1 O2 S1'
_publ_section_title
;
Crystal structures and Raman spectra of alpha- and beta-Na S C N (H2 
O)2
;
loop_
_citation_id
_citation_journal_abbrev
_citation_year
_citation_journal_volume
_citation_page_first
_citation_page_last
_citation_journal_id_ASTM
primary 'Zeitschrift fuer Kristallographie (1979-2010)' 1984 169 95 107 ZEKRDZ
_publ_author_name                  'Mereiter, K.;Preisinger, A.'
_cell_length_a                     12.052(2)
_cell_length_b                     13.763(2)
_cell_length_c                     6.386(1)
_cell_angle_alpha                  90.
_cell_angle_beta                   109.61(1)
_cell_angle_gamma                  90.
_cell_volume                       997.82
_cell_formula_units_Z              8
_symmetry_space_group_name_H-M     'C 1 2/c 1'
_symmetry_Int_Tables_number        15
_refine_ls_R_factor_all            .017
loop_
_symmetry_equiv_pos_site_id
_symmetry_equiv_pos_as_xyz
  1	'x, -y, z+.5'
  2	'-x, -y, -z'
  3	'-x, y, -z+.5'
  4	'x, y, z'
  5	'x+.5, -y+.5, z+.5'
  6	'-x+.5, -y+.5, -z'
  7	'-x+.5, y+.5, -z+.5'
  8	'x+.5, y+.5, z'
loop_
_atom_type_symbol
_atom_type_oxidation_number
C4+	4
H1+	1
N3-	-3
Na1+	1
O2-	-2
S2-	-2
loop_
_atom_site_label
_atom_site_type_symbol
_atom_site_symmetry_multiplicity
_atom_site_Wyckoff_symbol
_atom_site_fract_x
_atom_site_fract_y
_atom_site_fract_z
_atom_site_occupancy
_atom_site_attached_hydrogens
_atom_site_U_iso_or_equiv
Na1 Na1+ 4 e 0.5 0.43384(3) 0.25 1. 0 0 
Na2 Na1+ 4 e 0.5 0.70046(3) 0.25 1. 0 0 
S1 S2- 8 f 0.86591(2) 0.58166(1) 0.25143(3) 1. 0 0 
C1 C4+ 8 f 0.72239(6) 0.57388(5) 0.219790(13) 1. 0 0 
N1 N3- 8 f 0.62142(6) 0.56663(5) 0.16237(13) 1. 0 0 
O1 O2- 8 f 0.61303(5) 0.68657(4) 0.64129(10) 1. 0 0 
O2 O2- 8 f 0.63532(5) 0.83351(4) 0.24271(10) 1. 0 0 
H1 H1+ 8 f 0.69391 0.6712 0.66374 1. 0 0.0456(19) 
H2 H1+ 8 f 0.61611 0.75324 0.6871 1. 0 0.0456(19) 
H3 H1+ 8 f 0.62698 0.86797 0.10757 1. 0 0.0456(19) 
H4 H1+ 8 f 0.62205 0.88138 0.34107 1. 0 0.0456(19) 

loop_
_atom_site_aniso_label
_atom_site_aniso_type_symbol
_atom_site_aniso_U_11
_atom_site_aniso_U_22
_atom_site_aniso_U_33
_atom_site_aniso_U_12
_atom_site_aniso_U_13
_atom_site_aniso_U_23
Na1 Na1+ 0.0138(2) 0.0133(2) 0.0133(2) 0 0.0055(2) 0
Na2 Na1+ 0.0147(2) 0.0138(2) 0.0142(2) 0 0.0053(2) 0
S1 S2- 0.0115(1) 0.0174(1) 0.0195(1) -.0010(1) 0.0067(1) -.0008(1)
C1 C4+ 0.165(3) 0.0112(3) 0.0113(2) 0.0000(2) 0.0060(3) -.0002(2)
N1 N3- 0.0152(3) 0.0168(3) 0.0167(3) -.0004(2) 0.0060(3) -.0002(3)
O1 O2- 0.0158(3) 0.0151(2) 0.0191(3) -.0019(2) 0.0061(2) -.0003(2)
O2 O2- 0.0220(3) 0.0170(3) 0.0198(3) -.0015(2) 0.0088(2) 0.0008(3)
#End of data_30920-ICSD


