data_173379-ICSD
#?2014 by Fachinformationszentrum Karlsruhe, and the U.S. Secretary of 
#Commerce on behalf of the United States.  All rights reserved.
_database_code_ICSD                173379
_audit_creation_date               2008/08/01
_audit_update_record               2013/02/01
_chemical_name_systematic
;
Sodium Zinc 2-hydroxyl(phosphono)carboxylate
;
_chemical_formula_structural       'Na Zn (O3 P C H (O H) C O2)'
_chemical_formula_sum              'C2 H2 Na1 O6 P1 Zn1'
_publ_section_title
;
Syntheses, crystal structures, thermal stabilities, and magnetic and 
luminescent properties of 3D heterometal phosphonates: Na M [O3 P C H 
(O H) C O2] (M = Mn, Fe, Co, Zn)
;
loop_
_citation_id
_citation_journal_abbrev
_citation_year
_citation_journal_volume
_citation_journal_issue
_citation_page_first
_citation_page_last
_citation_journal_id_ASTM
primary 'European Journal of Inorganic Chemistry  (online)'
 2007 2007 34 5439 5446 EJICFO
_publ_author_name
;
Lai Zhuzhi;Fu Ruibiao;Hu Shengmin;Wu Xin Tao
;
_cell_length_a                     10.1365(16)
_cell_length_b                     9.6893(15)
_cell_length_c                     10.7942(19)
_cell_angle_alpha                  90.00
_cell_angle_beta                   90.00
_cell_angle_gamma                  90.00
_cell_volume                       1060.16
_cell_formula_units_Z              8
_symmetry_space_group_name_H-M     'P b c a'
_symmetry_Int_Tables_number        61
_refine_ls_R_factor_all            .0444
loop_
_symmetry_equiv_pos_site_id
_symmetry_equiv_pos_as_xyz
  1	'x+.5, y, -z+.5'
  2	'x, -y+.5, z+.5'
  3	'-x+.5, y+.5, z'
  4	'-x, -y, -z'
  5	'-x+.5, -y, z+.5'
  6	'-x, y+.5, -z+.5'
  7	'x+.5, -y+.5, -z'
  8	'x, y, z'
loop_
_atom_type_symbol
_atom_type_oxidation_number
C2+	2
C4+	4
H1-	-1
H1+	1
Na1+	1
O2-	-2
P3+	3
Zn2+	2
loop_
_atom_site_label
_atom_site_type_symbol
_atom_site_symmetry_multiplicity
_atom_site_Wyckoff_symbol
_atom_site_fract_x
_atom_site_fract_y
_atom_site_fract_z
_atom_site_occupancy
_atom_site_attached_hydrogens
_atom_site_U_iso_or_equiv
Zn1 Zn2+ 8 c 0.17841(5) 0.08348(5) 0.39520(5) 1 0 0.01246(16) 
Na1 Na1+ 8 c 0.37647(17) -0.08364(17) 0.57459(18) 1 0 0.0195(4) 
P1 P3+ 8 c 0.09581(10) -0.21927(10) 0.53965(11) 1 0 0.0109(2) 
O1 O2- 8 c 0.1483(3) -0.3582(3) 0.4971(3) 1 0 0.0149(6) 
O2 O2- 8 c -0.0532(3) -0.2138(3) 0.5227(3) 1 0 0.0163(7) 
O3 O2- 8 c 0.1703(3) -0.0982(3) 0.4854(3) 1 0 0.0150(6) 
O4 O2- 8 c 0.2632(3) -0.2217(3) 0.7364(3) 1 0 0.0142(6) 
H1 H1+ 8 c 0.279(5) -0.309(6) 0.743(6) 1 0 0.032(16) 
O5 O2- 8 c 0.0268(3) 0.0175(3) 0.2677(3) 1 0 0.0164(7) 
O6 O2- 8 c 0.3167(3) -0.0197(3) 0.2787(3) 1 0 0.0171(7) 
C1 C4+ 8 c 0.1259(4) -0.2035(4) 0.7073(4) 1 0 0.0124(8) 
H2 H1- 8 c 0.076(4) -0.262(4) 0.747(4) 1 0 0.001(10) 
C2 C2+ 8 c -0.0905(4) 0.0563(4) 0.2581(4) 1 0 0.0111(8) 

loop_
_atom_site_aniso_label
_atom_site_aniso_type_symbol
_atom_site_aniso_U_11
_atom_site_aniso_U_22
_atom_site_aniso_U_33
_atom_site_aniso_U_12
_atom_site_aniso_U_13
_atom_site_aniso_U_23
Zn1 Zn2+ 0.0104(3) 0.0128(2) 0.0141(3) 0.00088(18) 0.0007(2) 0.0006(2)
Na1 Na1+ 0.0171(9) 0.0167(9) 0.0245(10) -0.0005(7) -0.0052(8) 0.0001(8)
P1 P3+ 0.0100(5) 0.0104(5) 0.0123(5) 0.0000(4) 0.0006(4) -0.0002(4)
O1 O2- 0.0170(15) 0.0100(14) 0.0178(16) 0.0021(11) 0.0029(13) -0.0030(13)
O2 O2- 0.0104(14) 0.0176(15) 0.0209(18) 0.0010(11) -0.0018(13) -0.0050(14)
O3 O2- 0.0147(15) 0.0116(14) 0.0187(16) -0.0027(11) -0.0009(13) 0.0033(12)
O4 O2- 0.0103(14) 0.0125(14) 0.0196(17) 0.0021(11) -0.0011(13) 0.0011(13)
O5 O2- 0.0117(14) 0.0184(15) 0.0190(17) 0.0027(12) -0.0007(13) -0.0035(13)
O6 O2- 0.0142(15) 0.0122(14) 0.0249(18) -0.0011(12) 0.0076(13) 0.0004(13)
C1 C4+ 0.0092(19) 0.0121(19) 0.016(2) -0.0017(16) -0.0012(17) 0.0029(18)
C2 C2+ 0.014(2) 0.0126(18) 0.0072(19) -0.0022(16) 0.0001(16) 0.0044(17)
#End of data_173379-ICSD


