data_181923-ICSD
#?2014 by Fachinformationszentrum Karlsruhe, and the U.S. Secretary of 
#Commerce on behalf of the United States.  All rights reserved.
_database_code_ICSD                181923
_audit_creation_date               2012/02/01
_chemical_name_systematic          'Potassium Cobalt Triformate'
_chemical_formula_structural       'K Co (H C O O)3'
_chemical_formula_sum              'C3 H3 Co1 K1 O6'
_publ_section_title
;
Irreversible transformation of chiral to achiral polymorph of K (Co 
(H C O O)3) : synthesis, structures and magnetic properties
;
loop_
_citation_id
_citation_journal_abbrev
_citation_year
_citation_journal_volume
_citation_page_first
_citation_page_last
_citation_journal_id_ASTM
primary 'Dalton Transactions' 2011 40 4465 4473 DTARAF
_publ_author_name
;
Duan, Zhi Ming;Wang, Zhe Ming;Gao, Song
;
_cell_length_a                     10.7489(6)
_cell_length_b                     8.9864(5)
_cell_length_c                     6.8879(3)
_cell_angle_alpha                  90.00
_cell_angle_beta                   95.466(3)
_cell_angle_gamma                  90.00
_cell_volume                       662.3
_cell_formula_units_Z              4
_symmetry_space_group_name_H-M     'C 1 2/c 1'
_symmetry_Int_Tables_number        15
_refine_ls_R_factor_all            .0267
loop_
_symmetry_equiv_pos_site_id
_symmetry_equiv_pos_as_xyz
  1	'x, -y, z+.5'
  2	'-x, -y, -z'
  3	'-x, y, -z+.5'
  4	'x, y, z'
  5	'x+.5, -y+.5, z+.5'
  6	'-x+.5, -y+.5, -z'
  7	'-x+.5, y+.5, -z+.5'
  8	'x+.5, y+.5, z'
loop_
_atom_type_symbol
_atom_type_oxidation_number
C4+	4
Co2+	2
H1-	-1
K1+	1
O2-	-2
loop_
_atom_site_label
_atom_site_type_symbol
_atom_site_symmetry_multiplicity
_atom_site_Wyckoff_symbol
_atom_site_fract_x
_atom_site_fract_y
_atom_site_fract_z
_atom_site_occupancy
_atom_site_attached_hydrogens
_atom_site_U_iso_or_equiv
Co1 Co2+ 4 d 0.2500 0.2500 0.5000 1 0 0.01791(18) 
K1 K1+ 4 e 0.5000 0.39660(7) 0.2500 1 0 0.0279(2) 
O1 O2- 8 f 0.25438(15) 0.45203(16) 0.3459(2) 1 0 0.0286(4) 
O2 O2- 8 f 0.16783(15) 0.66688(16) 0.2419(2) 1 0 0.0286(4) 
O3 O2- 8 f 0.43046(15) 0.68982(18) 0.1215(2) 1 0 0.0273(4) 
C1 C4+ 8 f 0.1840(2) 0.5599(2) 0.3570(3) 1 0 0.0266(5) 
H1 H1- 8 f 0.1374 0.5614 0.4640 1 0 0.032 
C2 C4+ 4 e 0.5000 0.7519(3) 0.2500 1 0 0.0282(7) 
H2 H1- 4 e 0.5000 0.8554 0.2500 1 0 0.034 

loop_
_atom_site_aniso_label
_atom_site_aniso_type_symbol
_atom_site_aniso_U_11
_atom_site_aniso_U_22
_atom_site_aniso_U_33
_atom_site_aniso_U_12
_atom_site_aniso_U_13
_atom_site_aniso_U_23
Co1 Co2+ 0.0165(3) 0.0175(2) 0.0193(2) -0.00048(15) -0.00023(15) 
0.00135(14)
K1 K1+ 0.0286(4) 0.0228(3) 0.0338(4) 0.000 0.0109(3) 0.000
O1 O2- 0.0293(9) 0.0237(8) 0.0337(8) 0.0060(7) 0.0076(6) 0.0073(6)
O2 O2- 0.0324(9) 0.0250(8) 0.0295(8) 0.0089(7) 0.0091(6) 0.0089(6)
O3 O2- 0.0210(8) 0.0334(8) 0.0261(8) 0.0029(7) -0.0054(6) -0.0040(6)
C1 C4+ 0.0313(13) 0.0253(11) 0.0240(10) 0.0048(10) 0.0071(9) 0.0028(9)
C2 C4+ 0.0264(17) 0.0236(16) 0.0336(17) 0.000 -0.0030(14) 0.000
#End of data_181923-ICSD


