data_260891-ICSD
#?2014 by Fachinformationszentrum Karlsruhe, and the U.S. Secretary of 
#Commerce on behalf of the United States.  All rights reserved.
_database_code_ICSD                260891
_audit_creation_date               2011/02/01
_chemical_name_systematic
;
Poly(diaquatetra-mue-selenocyanato-cadmium(II)dipotassium(I))
;
_chemical_formula_structural       'Cd K2 (N C Se)4 (H2 O)2'
_chemical_formula_sum              'C4 H4 Cd1 K2 N4 O2 Se4'
_publ_section_title
;
Poly[diaquatetra-mu-selenocyanato-cadmium(II)dipotassium(I)]
;
loop_
_citation_id
_citation_journal_abbrev
_citation_year
_citation_journal_volume
_citation_journal_issue
_citation_page_first
_citation_page_last
_citation_journal_id_ASTM
primary 'Acta Crystallographica, Section E. Structure Reports Online'
 2010 66 10 i70 i71 ACSEBH
_publ_author_name
;
Reinert, T.;Boeckmann, J.;Jess, I.;Naether, C.
;
_cell_length_a                     21.574(3)
_cell_length_b                     4.4055(4)
_cell_length_c                     17.9316(19)
_cell_angle_alpha                  90.00
_cell_angle_beta                   112.454(13)
_cell_angle_gamma                  90.00
_cell_volume                       1575.09
_cell_formula_units_Z              4
_symmetry_space_group_name_H-M     'C 1 2/c 1'
_symmetry_Int_Tables_number        15
_refine_ls_R_factor_all            .0373
loop_
_symmetry_equiv_pos_site_id
_symmetry_equiv_pos_as_xyz
  1	'x, -y, z+.5'
  2	'-x, -y, -z'
  3	'-x, y, -z+.5'
  4	'x, y, z'
  5	'x+.5, -y+.5, z+.5'
  6	'-x+.5, -y+.5, -z'
  7	'-x+.5, y+.5, -z+.5'
  8	'x+.5, y+.5, z'
loop_
_atom_type_symbol
_atom_type_oxidation_number
C4+	4
Cd2+	2
H1+	1
K1+	1
N3-	-3
O2-	-2
Se2-	-2
loop_
_atom_site_label
_atom_site_type_symbol
_atom_site_symmetry_multiplicity
_atom_site_Wyckoff_symbol
_atom_site_fract_x
_atom_site_fract_y
_atom_site_fract_z
_atom_site_occupancy
_atom_site_attached_hydrogens
_atom_site_U_iso_or_equiv
Cd1 Cd2+ 4 e 0.5000 0.53865(16) 0.7500 1 0 0.02159(19) 
Se1 Se2- 8 f 0.39046(3) 0.19271(15) 0.71167(3) 1 0 0.02260(18) 
C1 C4+ 8 f 0.3440(3) 0.3582(16) 0.6125(4) 1 0 0.0257(13) 
N1 N3- 8 f 0.3131(3) 0.4620(16) 0.5497(3) 1 0 0.0320(13) 
Se2 Se2- 8 f 0.49070(3) 0.85366(16) 0.61994(3) 1 0 0.02357(19) 
C2 C4+ 8 f 0.5606(4) 0.6741(17) 0.6015(4) 1 0 0.0293(15) 
N2 N3- 8 f 0.6047(4) 0.5706(16) 0.5900(4) 1 0 0.0381(15) 
K1 K1+ 8 f 0.32739(8) 0.9210(4) 0.44900(8) 1 0 0.0291(3) 
O1 O2- 8 f 0.2416(3) 0.8171(13) 0.2915(3) 1 0 0.0375(12) 
H1 H1+ 8 f 0.1999 0.8495 0.2786 1 0 0.056 
H2 H1+ 8 f 0.2463 0.6824 0.2602 1 0 0.056 

loop_
_atom_site_aniso_label
_atom_site_aniso_type_symbol
_atom_site_aniso_U_11
_atom_site_aniso_U_22
_atom_site_aniso_U_33
_atom_site_aniso_U_12
_atom_site_aniso_U_13
_atom_site_aniso_U_23
Cd1 Cd2+ 0.0190(3) 0.0260(4) 0.0195(3) 0.000 0.0071(2) 0.000
Se1 Se2- 0.0206(3) 0.0229(3) 0.0237(3) -0.0014(2) 0.0078(2) 0.0018(2)
C1 C4+ 0.022(3) 0.026(4) 0.033(3) -0.006(3) 0.015(3) -0.004(3)
N1 N3- 0.028(3) 0.037(4) 0.028(3) -0.003(3) 0.007(2) 0.002(3)
Se2 Se2- 0.0244(3) 0.0258(4) 0.0208(3) 0.0022(3) 0.0089(2) 0.0020(2)
C2 C4+ 0.038(4) 0.029(4) 0.022(3) -0.004(3) 0.013(3) -0.002(3)
N2 N3- 0.047(4) 0.033(4) 0.048(3) 0.008(3) 0.033(3) 0.002(3)
K1 K1+ 0.0348(8) 0.0263(8) 0.0292(7) 0.0001(6) 0.0155(6) -0.0005(6)
O1 O2- 0.032(3) 0.042(3) 0.039(3) -0.007(3) 0.015(2) -0.008(2)
#End of data_260891-ICSD


