data_261775-ICSD
#?2014 by Fachinformationszentrum Karlsruhe, and the U.S. Secretary of 
#Commerce on behalf of the United States.  All rights reserved.
_database_code_ICSD                261775
_audit_creation_date               2012/02/01
_chemical_name_systematic
;
Silver Samarium Oxalate Sulfate(VI) Dihydrate
;
_chemical_formula_structural       'Ag Sm (C2 O4) (S O4) (H2 O)2'
_chemical_formula_sum              'C2 H4 Ag1 O10 S1 Sm1'
_publ_section_title
;
Organic-inorganic hybrid lanthanide-silver heterometallic 
coordination frameworks constructed from oxalate and sulfate anion: 
syntheses, structures, and photoluminescent properties
;
loop_
_citation_id
_citation_journal_abbrev
_citation_year
_citation_journal_volume
_citation_journal_issue
_citation_page_first
_citation_page_last
_citation_journal_id_ASTM
primary 'Zeitschrift fuer Anorganische und Allgemeine Chemie (1950) (DE)'
 2011 637 6 741 747 ZAACAB
_publ_author_name
;
Xiao Xueying;Wei Yongqin;Zheng Wenxu;Wu Kechen
;
_cell_length_a                     6.630(3)
_cell_length_b                     13.829(7)
_cell_length_c                     9.001(4)
_cell_angle_alpha                  90.00
_cell_angle_beta                   97.128(9)
_cell_angle_gamma                  90.00
_cell_volume                       818.89
_cell_formula_units_Z              4
_symmetry_space_group_name_H-M     'P 1 21/c 1'
_symmetry_Int_Tables_number        14
_refine_ls_R_factor_all            .0289
loop_
_symmetry_equiv_pos_site_id
_symmetry_equiv_pos_as_xyz
  1	'x, -y+.5, z+.5'
  2	'-x, -y, -z'
  3	'-x, y+.5, -z+.5'
  4	'x, y, z'
loop_
_atom_type_symbol
_atom_type_oxidation_number
Ag1+	1
C3+	3
H1+	1
O2-	-2
S6+	6
Sm3+	3
loop_
_atom_site_label
_atom_site_type_symbol
_atom_site_symmetry_multiplicity
_atom_site_Wyckoff_symbol
_atom_site_fract_x
_atom_site_fract_y
_atom_site_fract_z
_atom_site_occupancy
_atom_site_attached_hydrogens
_atom_site_U_iso_or_equiv
Sm1 Sm3+ 4 e 0.77432(4) 0.91132(2) 0.21402(3) 1 0 0.00945(12) 
Ag1 Ag1+ 4 e 0.28608(7) 0.74717(6) 0.22457(6) 1 0 0.0448(2) 
S1 S6+ 4 e 0.72955(19) 0.97165(11) -0.19091(14) 1 0 0.0104(3) 
O1 O2- 4 e 0.5582(5) 0.7062(3) 0.5513(4) 1 0 0.0150(9) 
O2 O2- 4 e 0.9667(6) 0.8331(3) 0.4405(4) 1 0 0.0192(10) 
O3 O2- 4 e 0.7773(6) 1.0939(3) 0.1343(4) 1 0 0.0162(9) 
H1 H1+ 4 e 0.687(5) 1.098(4) 0.058(4) 1 0 0.024 
H2 H1+ 4 e 0.889(4) 1.103(5) 0.098(5) 1 0 0.024 
O4 O2- 4 e 0.8306(6) 0.9256(3) -0.0526(4) 1 0 0.0151(9) 
O5 O2- 4 e 0.5658(5) 1.0348(3) -0.1499(4) 1 0 0.0164(9) 
O6 O2- 4 e 0.6475(6) 0.8996(3) -0.2984(5) 1 0 0.0258(11) 
O7 O2- 4 e 0.8824(6) 1.0327(4) -0.2536(4) 1 0 0.0266(12) 
O8 O2- 4 e 0.7292(7) 1.0172(4) 0.4225(4) 1 0 0.0263(11) 
H3 H1+ 4 e 0.798(7) 1.025(5) 0.509(3) 1 0 0.039 
H4 H1+ 4 e 0.613(5) 1.041(5) 0.435(6) 1 0 0.039 
O9 O2- 4 e 0.9572(5) 0.7304(3) 0.6310(4) 1 0 0.0158(9) 
C1 C3+ 4 e 0.8781(8) 0.7781(4) 0.5184(6) 1 0 0.0133(12) 
O10 O2- 4 e 0.5695(5) 0.8127(3) 0.3655(4) 1 0 0.0157(9) 
C2 C3+ 4 e 0.6472(8) 0.7648(4) 0.4764(5) 1 0 0.0106(11) 

loop_
_atom_site_aniso_label
_atom_site_aniso_type_symbol
_atom_site_aniso_U_11
_atom_site_aniso_U_22
_atom_site_aniso_U_33
_atom_site_aniso_U_12
_atom_site_aniso_U_13
_atom_site_aniso_U_23
Sm1 Sm3+ 0.00912(17) 0.01244(19) 0.00684(16) -0.00019(12) 0.00119(10) 
0.00023(11)
Ag1 Ag1+ 0.0177(3) 0.0591(5) 0.0530(4) -0.0140(3) -0.0139(3) 0.0240(3)
S1 S6+ 0.0097(6) 0.0138(8) 0.0079(6) 0.0016(6) 0.0023(5) 0.0015(5)
O1 O2- 0.0160(19) 0.016(2) 0.0134(18) -0.0007(18) 0.0025(15) 0.0046(17)
O2 O2- 0.0138(19) 0.024(3) 0.019(2) -0.0033(19) 0.0018(16) 0.0101(19)
O3 O2- 0.011(2) 0.025(3) 0.0131(19) -0.0010(19) 0.0014(15) 0.0006(18)
O4 O2- 0.0156(19) 0.020(3) 0.0095(17) 0.0026(18) 0.0019(15) 0.0062(17)
O5 O2- 0.012(2) 0.021(3) 0.0158(19) 0.0070(18) -0.0002(15) -0.0019(18)
O6 O2- 0.027(3) 0.027(3) 0.020(2) 0.003(2) -0.0074(19) -0.012(2)
O7 O2- 0.014(2) 0.040(3) 0.026(2) -0.003(2) 0.0033(17) 0.023(2)
O8 O2- 0.031(2) 0.036(3) 0.012(2) -0.001(2) 0.0028(18) -0.007(2)
O9 O2- 0.0139(19) 0.018(3) 0.0137(18) -0.0034(17) -0.0040(15) 0.0037(18)
C1 C3+ 0.013(3) 0.016(3) 0.010(2) 0.003(2) -0.002(2) -0.001(2)
O10 O2- 0.031(2) 0.036(3) 0.012(2) -0.001(2) 0.0028(18) -0.007(2)
C2 C3+ 0.012(3) 0.012(3) 0.008(2) 0.002(2) 0.000(2) -0.001(2)
#End of data_261775-ICSD


