data_240220-ICSD
#?2014 by Fachinformationszentrum Karlsruhe, and the U.S. Secretary of 
#Commerce on behalf of the United States.  All rights reserved.
_database_code_ICSD                240220
_audit_creation_date               2005/10/01
_chemical_name_systematic
;
Bis(N-lithio-trimethylsilylamino)bis(dimethylamino)silane
;
_chemical_formula_structural
;
(Si (N Li Si (C H3)3)2 (N (C H3)2)2)2
;
_chemical_formula_sum              'C20 H60 Li4 N8 Si6'
_publ_section_title
;
Syntheses and Crystal Structures of Bis(N-lithio-
trimethylsilylamino)bis(dimethylamino)silane and 1,1-Dichloro-2,4-
bis(trimethylsilylamino)-3,3-
bis(dimethylamino)siladiazatitanacyclobutane
;
loop_
_citation_id
_citation_journal_abbrev
_citation_year
_citation_journal_volume
_citation_page_first
_citation_page_last
_citation_journal_id_ASTM
primary 'Zeitschrift fuer Naturforschung, B: Chemical Sciences'
 2002 57 976 982 ZNBSEN
_publ_author_name
;
Engering, J.;Peters, E.M.;Jansen, M.
;
_cell_length_a                     19.2571(12)
_cell_length_b                     15.0217(9)
_cell_length_c                     13.8934(9)
_cell_angle_alpha                  90.00
_cell_angle_beta                   101.9490(10)
_cell_angle_gamma                  90.00
_cell_volume                       3931.92
_cell_formula_units_Z              4
_symmetry_space_group_name_H-M     'C 1 2/c 1'
_symmetry_Int_Tables_number        15
_refine_ls_R_factor_all            .0771
loop_
_symmetry_equiv_pos_site_id
_symmetry_equiv_pos_as_xyz
  1	'x, -y, z+.5'
  2	'-x, -y, -z'
  3	'-x, y, -z+.5'
  4	'x, y, z'
  5	'x+.5, -y+.5, z+.5'
  6	'-x+.5, -y+.5, -z'
  7	'-x+.5, y+.5, -z+.5'
  8	'x+.5, y+.5, z'
loop_
_atom_type_symbol
_atom_type_oxidation_number
C2.8+	2.8
H1-	-1
Li1+	1
N3-	-3
Si4+	4
loop_
_atom_site_label
_atom_site_type_symbol
_atom_site_symmetry_multiplicity
_atom_site_Wyckoff_symbol
_atom_site_fract_x
_atom_site_fract_y
_atom_site_fract_z
_atom_site_occupancy
_atom_site_attached_hydrogens
_atom_site_U_iso_or_equiv
Si1 Si4+ 8 f 0.39282(3) 0.24167(4) 0.80008(4) 1 0 0.05428(18) 
Si2 Si4+ 8 f 0.36857(3) 0.41001(4) 0.66527(4) 1 0 0.0664(2) 
Si3 Si4+ 8 f 0.47482(4) 0.20525(4) 1.01104(4) 1 0 0.0748(2) 
N1 N3- 8 f 0.38251(11) 0.14180(12) 0.72956(13) 1 0 0.0740(5) 
N2 N3- 8 f 0.41299(7) 0.32064(10) 0.72114(10) 1 0 0.0483(4) 
N3 N3- 8 f 0.46555(9) 0.23193(10) 0.89081(11) 1 0 0.0525(4) 
N4 N3- 8 f 0.31414(10) 0.26124(14) 0.83699(15) 1 0 0.0826(6) 
C1 C2.8+ 8 f 0.32250(17) 0.1329(2) 0.6464(2) 1 0 0.1167(11) 
H1 H1- 8 f 0.3104 0.1903 0.6174 1 0 0.175 
H2 H1- 8 f 0.2825 0.1088 0.6690 1 0 0.175 
H3 H1- 8 f 0.3352 0.0936 0.5983 1 0 0.175 
C2 C2.8+ 8 f 0.40151(19) 0.05537(16) 0.7750(2) 1 0 0.1107(11) 
H4 H1- 8 f 0.4406 0.0623 0.8299 1 0 0.166 
H5 H1- 8 f 0.4149 0.0159 0.7277 1 0 0.166 
H6 H1- 8 f 0.3615 0.0310 0.7974 1 0 0.166 
C3 C2.8+ 8 f 0.27159(15) 0.3943(3) 0.6155(3) 1 0 0.1448(15) 
H7 H1- 8 f 0.2643 0.3418 0.5753 1 0 0.217 
H8 H1- 8 f 0.2531 0.4451 0.5766 1 0 0.217 
H9 H1- 8 f 0.2475 0.3879 0.6691 1 0 0.217 
C4 C2.8+ 8 f 0.40970(19) 0.44075(19) 0.5573(2) 1 0 0.1075(10) 
H10 H1- 8 f 0.4064 0.3911 0.5131 1 0 0.161 
H11 H1- 8 f 0.4587 0.4560 0.5807 1 0 0.161 
H12 H1- 8 f 0.3849 0.4908 0.5233 1 0 0.161 
C5 C2.8+ 8 f 0.37925(15) 0.51309(17) 0.7422(2) 1 0 0.0979(8) 
H13 H1- 8 f 0.4288 0.5236 0.7680 1 0 0.147 
H14 H1- 8 f 0.3551 0.5058 0.7956 1 0 0.147 
H15 H1- 8 f 0.3594 0.5629 0.7025 1 0 0.147 
C6 C2.8+ 8 f 0.4601(2) 0.2996(2) 1.0908(2) 1 0 0.1254(12) 
H16 H1- 8 f 0.4889 0.3492 1.0799 1 0 0.188 
H17 H1- 8 f 0.4728 0.2818 1.1585 1 0 0.188 
H18 H1- 8 f 0.4110 0.3166 1.0752 1 0 0.188 
C7 C2.8+ 8 f 0.4171(3) 0.1132(3) 1.0390(3) 1 0 0.1641(18) 
H19 H1- 8 f 0.4225 0.0622 0.9996 1 0 0.246 
H20 H1- 8 f 0.3684 0.1322 1.0243 1 0 0.246 
H21 H1- 8 f 0.4306 0.0979 1.1074 1 0 0.246 
C8 C2.8+ 8 f 0.5690(2) 0.1691(3) 1.0571(2) 1 0 0.1552(17) 
H22 H1- 8 f 0.5794 0.1195 1.0189 1 0 0.233 
H23 H1- 8 f 0.5755 0.1518 1.1249 1 0 0.233 
H24 H1- 8 f 0.6004 0.2175 1.0512 1 0 0.233 
C9 C2.8+ 8 f 0.2587(2) 0.1980(3) 0.8404(3) 1 0 0.1616(18) 
H25 H1- 8 f 0.2681 0.1438 0.8088 1 0 0.242 
H26 H1- 8 f 0.2140 0.2221 0.8069 1 0 0.242 
H27 H1- 8 f 0.2569 0.1860 0.9077 1 0 0.242 
C10 C2.8+ 8 f 0.30128(17) 0.3442(2) 0.8831(3) 1 0 0.1146(11) 
H28 H1- 8 f 0.3378 0.3862 0.8774 1 0 0.172 
H29 H1- 8 f 0.3015 0.3339 0.9514 1 0 0.172 
H30 H1- 8 f 0.2559 0.3676 0.8512 1 0 0.172 
Li1 Li1+ 8 f 0.49801(15) 0.3435(2) 0.8374(2) 1 0 0.0510(7) 
Li2 Li1+ 8 f 0.55726(19) 0.2045(2) 0.8571(3) 1 0 0.0672(9) 

loop_
_atom_site_aniso_label
_atom_site_aniso_type_symbol
_atom_site_aniso_U_11
_atom_site_aniso_U_22
_atom_site_aniso_U_33
_atom_site_aniso_U_12
_atom_site_aniso_U_13
_atom_site_aniso_U_23
Si1 Si4+ 0.0612(3) 0.0576(3) 0.0490(3) -0.0166(2) 0.0227(3) -0.0059(2)
Si2 Si4+ 0.0565(3) 0.0802(4) 0.0591(4) 0.0185(3) 0.0042(3) 0.0089(3)
Si3 Si4+ 0.1217(6) 0.0644(4) 0.0448(3) 0.0093(3) 0.0322(3) 0.0118(3)
N1 N3- 0.0990(14) 0.0656(11) 0.0613(11) -0.0351(10) 0.0256(10) -0.0121(9)
N2 N3- 0.0436(8) 0.0550(9) 0.0465(8) -0.0023(6) 0.0099(6) 0.0032(7)
N3 N3- 0.0731(10) 0.0485(8) 0.0397(8) -0.0033(7) 0.0208(8) 0.0020(6)
N4 N3- 0.0681(12) 0.1010(15) 0.0903(15) -0.0252(11) 0.0431(11) -0.0107(12)
C1 C2.8+ 0.127(2) 0.133(3) 0.087(2) -0.072(2) 0.0148(18) -0.0285(19)
C2 C2.8+ 0.190(3) 0.0553(14) 0.100(2) -0.0360(17) 0.060(2) -0.0147(14)
C3 C2.8+ 0.0698(18) 0.200(4) 0.142(3) 0.026(2) -0.0304(19) 0.014(3)
C4 C2.8+ 0.156(3) 0.098(2) 0.0746(17) 0.0455(19) 0.0392(18) 0.0381(15)
C5 C2.8+ 0.116(2) 0.0786(18) 0.102(2) 0.0325(15) 0.0311(17) 0.0046(15)
C6 C2.8+ 0.216(4) 0.113(2) 0.0557(15) 0.022(2) 0.048(2) -0.0096(16)
C7 C2.8+ 0.279(5) 0.131(3) 0.107(3) -0.064(3) 0.098(3) 0.024(2)
C8 C2.8+ 0.180(4) 0.202(4) 0.081(2) 0.088(3) 0.021(2) 0.056(2)
C9 C2.8+ 0.132(3) 0.196(4) 0.185(4) -0.094(3) 0.098(3) -0.043(3)
C10 C2.8+ 0.103(2) 0.133(3) 0.129(3) -0.0013(18) 0.074(2) -0.017(2)
#End of data_240220-ICSD


