data_171260-ICSD
#?2014 by Fachinformationszentrum Karlsruhe, and the U.S. Secretary of 
#Commerce on behalf of the United States.  All rights reserved.
_database_code_ICSD                171260
_audit_creation_date               2006/10/01
_chemical_name_systematic
;
Dipotassium Platinum Mercury Hexacyanide Dihydrate
;
_chemical_formula_structural       'K2 Pt Hg (C N)6 (H2 O)2'
_chemical_formula_sum              'C6 H4 Hg1 K2 N6 O2 Pt1'
_publ_section_title
;
Metal-metal bond or isolated metal centers? Interaction of Hg (C N)2 
with square planar transition metal cyanides
;
loop_
_citation_id
_citation_journal_abbrev
_citation_year
_citation_journal_volume
_citation_journal_issue
_citation_page_first
_citation_page_last
_citation_journal_id_ASTM
primary 'Inorganic Chemistry' 2005 44 26 9643 9651 INOCAJ
_publ_author_name
;
Joszai, R.;Beszeda, I.;Benyei, C.;Fischer, A.;Kovacs, M.;Maliarik, 
M.;Nagy, P.;Shchukarev, A.;Toth, I.
;
_cell_length_a                     9.9880(10)
_cell_length_b                     6.9208(10)
_cell_length_c                     11.2143(10)
_cell_angle_alpha                  90
_cell_angle_beta                   113.007(10)
_cell_angle_gamma                  90
_cell_volume                       713.53
_cell_formula_units_Z              2
_symmetry_space_group_name_H-M     'P 1 21/c 1'
_symmetry_Int_Tables_number        14
_refine_ls_R_factor_all            .0224
loop_
_symmetry_equiv_pos_site_id
_symmetry_equiv_pos_as_xyz
  1	'x, -y+.5, z+.5'
  2	'-x, -y, -z'
  3	'-x, y+.5, -z+.5'
  4	'x, y, z'
loop_
_atom_type_symbol
_atom_type_oxidation_number
C2+	2
H1+	1
Hg2+	2
K1+	1
N3-	-3
O2-	-2
Pt2+	2
loop_
_atom_site_label
_atom_site_type_symbol
_atom_site_symmetry_multiplicity
_atom_site_Wyckoff_symbol
_atom_site_fract_x
_atom_site_fract_y
_atom_site_fract_z
_atom_site_occupancy
_atom_site_attached_hydrogens
_atom_site_U_iso_or_equiv
C1 C2+ 4 e -0.2073(11) 0.0281(9) -0.1164(6) 1 0 0.029(2) 
C2 C2+ 4 e 0.0579(11) 0.0459(11) -0.1474(7) 1 0 0.037(2) 
C3 C2+ 4 e -0.2110(14) -0.4758(10) -0.0254(8) 1 0 0.035(3) 
N1 N3- 4 e -0.3278(10) 0.0455(10) -0.1832(7) 1 0 0.044(2) 
N2 N3- 4 e 0.0960(11) 0.0706(13) -0.2315(7) 1 0 0.061(3) 
N3 N3- 4 e -0.3293(14) -0.4548(11) -0.0426(9) 1 0 0.053(3) 
K1 K1+ 4 e -0.4318(3) -0.2700(3) -0.3608(2) 1 0 0.0521(7) 
Pt1 Pt2+ 2 a 0 0 0 1 0 0.0239(2) 
Hg1 Hg2+ 2 c 0 -0.5 0 1 0 0.0337(3) 
O1 O2- 4 e -0.3823(9) -0.6555(11) -0.3856(7) 1 0 0.0552(19) 
H1 H1+ 4 e -0.291(3) -0.648(16) -0.367(10) 1 0 0.066 
H2 H1+ 4 e -0.472(4) -0.628(16) -0.417(10) 1 0 0.066 

loop_
_atom_site_aniso_label
_atom_site_aniso_type_symbol
_atom_site_aniso_U_11
_atom_site_aniso_U_22
_atom_site_aniso_U_33
_atom_site_aniso_U_12
_atom_site_aniso_U_13
_atom_site_aniso_U_23
C1 C2+ 0.028(7) 0.036(4) 0.023(3) 0.000(3) 0.009(3) 0.000(2)
C2 C2+ 0.034(7) 0.046(4) 0.026(3) 0.001(4) 0.005(4) -0.001(3)
C3 C2+ 0.023(9) 0.038(4) 0.040(4) -0.003(4) 0.009(4) -0.003(3)
N1 N3- 0.038(7) 0.049(4) 0.039(4) 0.003(4) 0.008(4) -0.002(3)
N2 N3- 0.071(8) 0.080(5) 0.034(4) 0.007(5) 0.022(4) 0.005(4)
N3 N3- 0.034(8) 0.055(5) 0.073(6) -0.004(4) 0.023(5) -0.005(4)
K1 K1+ 0.057(2) 0.0407(10) 0.0561(12) -0.0099(10) 0.0192(11) -0.0089(8)
Pt1 Pt2+ 0.0245(5) 0.0270(2) 0.0176(2) 0.00095(17) 0.00541(18) -0.00210(12)
Hg1 Hg2+ 0.0248(6) 0.0455(3) 0.0313(3) -0.0032(2) 0.0117(2) -0.00585(16)
O1 O2- 0.049(6) 0.052(4) 0.062(4) 0.006(4) 0.020(4) 0.007(3)
#End of data_171260-ICSD


