data_189671-ICSD
#?2014 by Fachinformationszentrum Karlsruhe, and the U.S. Secretary of 
#Commerce on behalf of the United States.  All rights reserved.
_database_code_ICSD                189671
_audit_creation_date               2014/02/01
_chemical_name_systematic          'Lithium Guanidinate'
_chemical_formula_structural       '(C (N H2) (N H)2) Li'
_chemical_formula_sum              'C1 H4 Li1 N3'
_publ_section_title
;
Completing a family: Li C N3 H4, the lightest alkali metal 
guanidinate
;
loop_
_citation_id
_citation_journal_abbrev
_citation_year
_citation_journal_volume
_citation_journal_issue
_citation_page_first
_citation_page_last
_citation_journal_id_ASTM
primary 'Dalton Transactions' 2013 42 42 15080 15087 DTARAF
_publ_author_name
;
Peter Klaus Sawinski;Volker L. Deringer;Richard Dronskowski
;
_cell_length_a                     7.2506
_cell_length_b                     4.5319
_cell_length_c                     9.051
_cell_angle_alpha                  90.00
_cell_angle_beta                   103.315
_cell_angle_gamma                  90.00
_cell_volume                       289.41
_cell_formula_units_Z              4
_symmetry_space_group_name_H-M     'P 1 21/c 1'
_symmetry_Int_Tables_number        14
loop_
_symmetry_equiv_pos_site_id
_symmetry_equiv_pos_as_xyz
  1	'x, -y+.5, z+.5'
  2	'-x, -y, -z'
  3	'-x, y+.5, -z+.5'
  4	'x, y, z'
loop_
_atom_type_symbol
_atom_type_oxidation_number
C4+	4
H1+	1
Li1+	1
N3-	-3
loop_
_atom_site_label
_atom_site_type_symbol
_atom_site_symmetry_multiplicity
_atom_site_Wyckoff_symbol
_atom_site_fract_x
_atom_site_fract_y
_atom_site_fract_z
_atom_site_occupancy
_atom_site_attached_hydrogens
Li1 Li1+ 4 e 0.8501 0.8805 0.5194 1 0 
C1 C4+ 4 e 0.75160 0.3710 0.30125 1 0 
N1 N3- 4 e 0.68905 0.5133 0.41946 1 0 
N2 N3- 4 e 0.68458 0.4525 0.15759 1 0 
N3 N3- 4 e 0.88052 0.1616 0.34625 1 0 
H1 H1+ 4 e 0.687 0.370 0.509 1 0 
H2 H1+ 4 e 0.564 0.627 0.384 1 0 
H3 H1+ 4 e 0.580 0.608 0.149 1 0 
H4 H1+ 4 e 0.912 0.065 0.252 1 0 

#End of data_189671-ICSD


