data_260896-ICSD
#?2014 by Fachinformationszentrum Karlsruhe, and the U.S. Secretary of 
#Commerce on behalf of the United States.  All rights reserved.
_database_code_ICSD                260896
_audit_creation_date               2011/02/01
_chemical_name_systematic
;
Sesquicesium Hemisodium Tetracyanidoplatinate(II) Sesquihydrate
;
_chemical_formula_structural       'Cs1.5 Na0.5 (Pt (C N)4) (H2 O)1.5'
_chemical_formula_sum              'C4 H3 Cs1.5 N4 Na0.5 O1.5 Pt1'
_publ_section_title
;
Sesquicaesium hemisodium tetracyanidoplatinate(II) sesquihydrate
;
loop_
_citation_id
_citation_journal_abbrev
_citation_year
_citation_journal_volume
_citation_journal_issue
_citation_page_first
_citation_page_last
_citation_journal_id_ASTM
primary 'Acta Crystallographica, Section E. Structure Reports Online'
 2010 66 9 i66 i66 ACSEBH
_publ_author_name
;
Weber, A.P.;Stojanovic, M.;Pischek, M.R.;Sykora, R.E.
;
_cell_length_a                     17.4090(5)
_cell_length_b                     7.21900(10)
_cell_length_c                     18.3921(5)
_cell_angle_alpha                  90.00
_cell_angle_beta                   117.858(4)
_cell_angle_gamma                  90.00
_cell_volume                       2043.56
_cell_formula_units_Z              8
_symmetry_space_group_name_H-M     'C 1 2/c 1'
_symmetry_Int_Tables_number        15
_refine_ls_R_factor_all            .014
loop_
_symmetry_equiv_pos_site_id
_symmetry_equiv_pos_as_xyz
  1	'x, -y, z+.5'
  2	'-x, -y, -z'
  3	'-x, y, -z+.5'
  4	'x, y, z'
  5	'x+.5, -y+.5, z+.5'
  6	'-x+.5, -y+.5, -z'
  7	'-x+.5, y+.5, -z+.5'
  8	'x+.5, y+.5, z'
loop_
_atom_type_symbol
_atom_type_oxidation_number
C2+	2
Cs1+	1
H1+	1
N3-	-3
Na1+	1
O2-	-2
Pt2+	2
loop_
_atom_site_label
_atom_site_type_symbol
_atom_site_symmetry_multiplicity
_atom_site_Wyckoff_symbol
_atom_site_fract_x
_atom_site_fract_y
_atom_site_fract_z
_atom_site_occupancy
_atom_site_attached_hydrogens
_atom_site_U_iso_or_equiv
Cs1 Cs1+ 4 e 0.0000 1.18745(7) -0.2500 1 0 0.04903(13) 
Cs2 Cs1+ 8 f 0.111975(18) 0.76781(4) -0.017780(19 1 0 0.03819(9) 
Na1 Na1+ 4 c 0.2500 0.2500 0.0000 1 0 0.0307(5) 
Pt1 Pt2+ 8 f 0.236863(10) 0.51660(2) 0.244311(9) 1 0 0.02326(7) 
C1 C2+ 8 f 0.3610(3) 0.5200(6) 0.3297(3) 1 0 0.0321(10) 
C2 C2+ 8 f 0.2026(3) 0.5153(5) 0.3330(2) 1 0 0.0285(9) 
C3 C2+ 8 f 0.1120(3) 0.5245(6) 0.1605(3) 1 0 0.0298(9) 
C4 C2+ 8 f 0.2736(3) 0.5128(5) 0.1564(2) 1 0 0.0267(9) 
N1 N3- 8 f 0.4315(3) 0.5232(6) 0.3789(3) 1 0 0.0477(11) 
N2 N3- 8 f 0.1834(3) 0.5155(6) 0.3851(3) 1 0 0.0446(10) 
N3 N3- 8 f 0.0407(3) 0.5366(6) 0.1146(3) 1 0 0.0465(10) 
N4 N3- 8 f 0.2955(3) 0.5061(5) 0.1069(2) 1 0 0.0376(9) 
O1 O2- 8 f 0.1138(2) 0.2401(5) -0.0028(2) 1 0 0.0443(9) 
H1 H1+ 8 f 0.109(3) 0.213(8) 0.040(2) 1 0 0.066 
H2 H1+ 8 f 0.070(2) 0.289(7) -0.040(2) 1 0 0.066 
O2 O2- 4 e 0.0000 0.7576(8) -0.2500 1 0 0.087(2) 
H3 H1+ 8 f -0.031(5) 0.698(5) -0.2927(19) 1 0 0.131 

loop_
_atom_site_aniso_label
_atom_site_aniso_type_symbol
_atom_site_aniso_U_11
_atom_site_aniso_U_22
_atom_site_aniso_U_33
_atom_site_aniso_U_12
_atom_site_aniso_U_13
_atom_site_aniso_U_23
Cs1 Cs1+ 0.0443(2) 0.0501(3) 0.0628(3) 0.000 0.0335(2) 0.000
Cs2 Cs1+ 0.02998(15) 0.04395(17) 0.04217(17) 0.00112(12) 0.01814(13) 
0.00518(13)
Na1 Na1+ 0.0286(12) 0.0374(13) 0.0269(12) -0.0005(10) 0.0135(10) 0.0005(10)
Pt1 Pt2+ 0.02326(9) 0.02732(10) 0.01992(9) -0.00030(6) 0.01069(7) 
-0.00112(6)
C1 C2+ 0.033(2) 0.035(2) 0.029(2) -0.0009(19) 0.016(2) -0.0013(19)
C2 C2+ 0.028(2) 0.028(2) 0.027(2) -0.0014(17) 0.0107(18) -0.0025(17)
C3 C2+ 0.032(2) 0.034(2) 0.026(2) -0.0021(18) 0.0149(19) -0.0017(18)
C4 C2+ 0.025(2) 0.026(2) 0.026(2) 0.0001(17) 0.0094(17) -0.0009(17)
N1 N3- 0.031(2) 0.059(3) 0.043(2) -0.0010(19) 0.0084(19) -0.003(2)
N2 N3- 0.059(3) 0.050(2) 0.038(2) -0.004(2) 0.033(2) -0.0024(19)
N3 N3- 0.032(2) 0.056(3) 0.042(2) -0.0005(19) 0.0088(19) -0.004(2)
N4 N3- 0.043(2) 0.044(2) 0.034(2) -0.0008(18) 0.0247(18) -0.0023(17)
O1 O2- 0.0303(16) 0.066(2) 0.038(2) 0.0061(16) 0.0175(15) 0.0116(17)
O2 O2- 0.083(5) 0.069(4) 0.127(7) 0.000 0.063(5) 0.000
#End of data_260896-ICSD


