data_39684-ICSD
#?2014 by Fachinformationszentrum Karlsruhe, and the U.S. Secretary of 
#Commerce on behalf of the United States.  All rights reserved.
_database_code_ICSD                39684
_audit_creation_date               1994/01/19
_chemical_name_systematic          'Lithium Sulfate Tris(urea)'
_chemical_formula_structural       'Li2 (S O4) (C O (N H2)2)3'
_chemical_formula_sum              'C3 H12 Li2 N6 O7 S1'
_publ_section_title
;
Crystal structure of lithium sulfate complex with carbamide 
Li2SO4*3CO(NH2)2.
;
loop_
_citation_id
_citation_journal_abbrev
_citation_year
_citation_journal_volume
_citation_journal_issue
_citation_page_first
_citation_page_last
_citation_journal_id_ASTM
primary Kristallografiya 1993 38 2 104 108 KRISAJ
2 'Crystallography Reports' 1993 38- 190 192 CYSTE3
_publ_author_name
;
Furmanova, N.G.;Kozhoeva, S.T.;Resnyanskii, V.F.;Sulaimankulov, K.
;
_cell_length_a                     17.078(4)
_cell_length_b                     9.292(1)
_cell_length_c                     7.978(8)
_cell_angle_alpha                  90.
_cell_angle_beta                   112.17(5)
_cell_angle_gamma                  90.
_cell_volume                       1172.42
_cell_formula_units_Z              4
_symmetry_space_group_name_H-M     'C 1 2/c 1'
_symmetry_Int_Tables_number        15
_refine_ls_R_factor_all            .045
loop_
_symmetry_equiv_pos_site_id
_symmetry_equiv_pos_as_xyz
  1	'x, -y, z+.5'
  2	'-x, -y, -z'
  3	'-x, y, -z+.5'
  4	'x, y, z'
  5	'x+.5, -y+.5, z+.5'
  6	'-x+.5, -y+.5, -z'
  7	'-x+.5, y+.5, -z+.5'
  8	'x+.5, y+.5, z'
loop_
_atom_type_symbol
_atom_type_oxidation_number
C4+	4
H1+	1
Li1+	1
N3-	-3
O2-	-2
S6+	6
loop_
_atom_site_label
_atom_site_type_symbol
_atom_site_symmetry_multiplicity
_atom_site_Wyckoff_symbol
_atom_site_fract_x
_atom_site_fract_y
_atom_site_fract_z
_atom_site_occupancy
_atom_site_attached_hydrogens
_atom_site_B_iso_or_equiv
S1 S6+ 4 e 0 0.58550(5) 0.25 1. 0 1.10(3) 
O1 O2- 8 f -.0112(1) 0.6791(1) 0.0937(1) 1. 0 2.28(5) 
O2 O2- 8 f 0.0751(1) 0.4936(1) 0.2872(1) 1. 0 2.09(5) 
O3 O2- 8 f 0.1778(1) 0.2207(2) 0.2476(2) 1. 0 3.00(6) 
O4 O2- 4 e 0 0.1815(1) 0.25 1. 0 1.91(6) 
C1 C4+ 8 f 0.2443(1) 0.1707(2) 0.2410(2) 1. 0 2.13(6) 
C2 C4+ 4 e 0 0.0465(2) 0.25 1. 0 1.81(8) 
N1 N3- 8 f 0.2442(1) 0.0908(2) 0.1010(3) 1. 0 3.88(9) 
N2 N3- 8 f 0.3191(1) 0.1932(2) 0.3754(2) 1. 0 3.53(8) 
N3 N3- 8 f -.0627(1) -.0293(1) 0.2728(3) 1. 0 2.85(7) 
Li1 Li1+ 8 f 0.0691(1) 0.3118(3) 0.1616(4) 1. 0 1.8(1) 
H1 H1+ 8 f 0.291(2) 0.062(4) 0.095(5) 1. 0 3.3(8) 
H2 H1+ 8 f 0.195(2) 0.077(4) 0.011(5) 1. 0 3.2(8) 
H3 H1+ 8 f 0.363(2) 0.142(4) 0.386(5) 1. 0 3.1(8) 
H4 H1+ 8 f 0.315(2) 0.236(4) 0.471(5) 1. 0 3.2(8) 
H5 H1+ 8 f -.104(2) 0.025(4) 0.298(5) 1. 0 2.5(7) 
H6 H1+ 8 f -.056(2) -.122(4) 0.293(5) 1. 0 2.2(7) 

#End of data_39684-ICSD


