data_250555-ICSD
#?2014 by Fachinformationszentrum Karlsruhe, and the U.S. Secretary of 
#Commerce on behalf of the United States.  All rights reserved.
_database_code_ICSD                250555
_audit_creation_date               2014/08/01
_chemical_name_systematic
;
Dimethylsulfonium Tetrachloroaluminate
;
_chemical_formula_structural       '((C H3)2 S H) Al Cl4'
_chemical_formula_sum              'C2 H7 Al1 Cl4 S1'
_publ_section_title
;
Thio-, seleno- and telluro-ether complexes of aluminium(III) halides: 
synthesis, structures and properties
;
loop_
_citation_id
_citation_journal_abbrev
_citation_year
_citation_journal_volume
_citation_journal_issue
_citation_page_first
_citation_page_last
_citation_journal_id_ASTM
primary 'Dalton Transactions' 2014 43 9 3637 3648 DTARAF
_publ_author_name
;
George, Kathryn;Jura, Marek;Levason, William;Light, Mark E.;Reid, 
Gillian
;
_cell_length_a                     14.378(3)
_cell_length_b                     10.908(2)
_cell_length_c                     12.374(3)
_cell_angle_alpha                  90.00
_cell_angle_beta                   90.260(3)
_cell_angle_gamma                  90.00
_cell_volume                       1940.65
_cell_formula_units_Z              8
_symmetry_space_group_name_H-M     'P 1 21/c 1'
_symmetry_Int_Tables_number        14
_refine_ls_R_factor_all            .0381
loop_
_symmetry_equiv_pos_site_id
_symmetry_equiv_pos_as_xyz
  1	'x, -y+.5, z+.5'
  2	'-x, -y, -z'
  3	'-x, y+.5, -z+.5'
  4	'x, y, z'
loop_
_atom_type_symbol
_atom_type_oxidation_number
Al3+	3
C4+	4
Cl1-	-1
H1-	-1
H1+	1
S2-	-2
loop_
_atom_site_label
_atom_site_type_symbol
_atom_site_symmetry_multiplicity
_atom_site_Wyckoff_symbol
_atom_site_fract_x
_atom_site_fract_y
_atom_site_fract_z
_atom_site_occupancy
_atom_site_attached_hydrogens
_atom_site_U_iso_or_equiv
Al1 Al3+ 4 e 0.37653(5) 0.72924(7) 0.90013(6) 1 0 0.02626(17) 
Al2 Al3+ 4 e 0.12454(5) 0.22953(7) 0.02876(6) 1 0 0.02465(16) 
S1 S2- 4 e 0.40192(5) 0.14094(6) 0.87145(5) 1 0 0.03462(16) 
S2 S2- 4 e 0.13652(6) 0.62087(6) 0.64329(5) 1 0 0.03683(17) 
Cl1 Cl1- 4 e 0.49583(4) 0.84438(6) 0.88012(5) 1 0 0.03093(15) 
Cl2 Cl1- 4 e 0.25590(4) 0.84347(7) 0.90345(6) 1 0 0.03739(16) 
Cl3 Cl1- 4 e 0.38833(7) 0.62811(10) 1.04500(8) 1 0 0.0703(3) 
Cl4 Cl1- 4 e 0.36850(5) 0.60702(7) 0.76565(7) 1 0 0.0485(2) 
Cl5 Cl1- 4 e 0.12945(7) 0.42265(7) 0.04599(7) 1 0 0.0528(2) 
Cl6 Cl1- 4 e 0.24521(4) 0.15030(6) 0.10319(5) 1 0 0.03024(15) 
Cl7 Cl1- 4 e 0.12452(5) 0.18280(8) -0.13918(5) 1 0 0.04347(19) 
Cl8 Cl1- 4 e 0.00220(4) 0.15550(6) 0.10008(5) 1 0 0.03141(15) 
C1 C4+ 4 e 0.35672(19) 0.0931(3) 0.7436(2) 1 0 0.0330(6) 
H1 H1- 4 e 0.3704 0.0059 0.7327 1 0 0.050 
H2 H1- 4 e 0.3857 0.1412 0.6860 1 0 0.050 
H3 H1- 4 e 0.2893 0.1058 0.7420 1 0 0.050 
C2 C4+ 4 e 0.37079(19) 0.2998(2) 0.8769(2) 1 0 0.0330(6) 
H4 H1- 4 e 0.3929 0.3351 0.9451 1 0 0.049 
H5 H1- 4 e 0.3030 0.3078 0.8724 1 0 0.049 
H6 H1- 4 e 0.3994 0.3432 0.8163 1 0 0.049 
C3 C4+ 4 e 0.1249(2) 0.7836(3) 0.6459(2) 1 0 0.0361(6) 
H7 H1- 4 e 0.1405 0.8172 0.5748 1 0 0.054 
H8 H1- 4 e 0.1671 0.8178 0.7005 1 0 0.054 
H9 H1- 4 e 0.0606 0.8053 0.6639 1 0 0.054 
C4 C4+ 4 e 0.1062(2) 0.5727(3) 0.7767(2) 1 0 0.0338(6) 
H10 H1- 4 e 0.1110 0.4833 0.7816 1 0 0.051 
H11 H1- 4 e 0.0423 0.5981 0.7924 1 0 0.051 
H12 H1- 4 e 0.1488 0.6104 0.8290 1 0 0.051 
H13 H1+ 4 e 0.4886(18) 0.141(3) 0.862(3) 1 0 0.050 
H14 H1+ 4 e 0.2237(18) 0.614(3) 0.652(3) 1 0 0.050 

loop_
_atom_site_aniso_label
_atom_site_aniso_type_symbol
_atom_site_aniso_U_11
_atom_site_aniso_U_22
_atom_site_aniso_U_33
_atom_site_aniso_U_12
_atom_site_aniso_U_13
_atom_site_aniso_U_23
Al1 Al3+ 0.0242(4) 0.0271(4) 0.0275(4) -0.0013(3) -0.0007(3) 0.0032(3)
Al2 Al3+ 0.0237(4) 0.0261(4) 0.0242(3) 0.0008(3) -0.0004(3) -0.0001(3)
S1 S2- 0.0446(4) 0.0330(3) 0.0262(3) 0.0088(3) -0.0050(3) -0.0039(3)
S2 S2- 0.0567(5) 0.0277(3) 0.0262(3) 0.0083(3) -0.0001(3) 0.0005(2)
Cl1 Cl1- 0.0227(3) 0.0343(3) 0.0358(3) -0.0035(2) 0.0003(2) 0.0019(2)
Cl2 Cl1- 0.0244(3) 0.0418(4) 0.0460(4) 0.0031(3) 0.0066(3) -0.0045(3)
Cl3 Cl1- 0.0679(6) 0.0858(7) 0.0572(5) -0.0183(5) -0.0113(4) 0.0465(5)
Cl4 Cl1- 0.0406(4) 0.0428(4) 0.0620(5) 0.0003(3) -0.0018(3) -0.0238(4)
Cl5 Cl1- 0.0733(6) 0.0244(3) 0.0607(5) 0.0009(4) 0.0016(4) 0.0042(3)
Cl6 Cl1- 0.0224(3) 0.0348(3) 0.0334(3) -0.0010(2) -0.0036(2) 0.0019(2)
Cl7 Cl1- 0.0351(4) 0.0721(5) 0.0232(3) -0.0028(3) 0.0006(3) -0.0058(3)
Cl8 Cl1- 0.0223(3) 0.0409(4) 0.0311(3) -0.0001(3) 0.0028(2) 0.0004(2)
C1 C4+ 0.0426(15) 0.0305(14) 0.0260(12) -0.0009(12) -0.0012(11) -0.0020(10)
C2 C4+ 0.0374(15) 0.0270(13) 0.0345(13) -0.0033(11) 0.0006(11) -0.0026(10)
C3 C4+ 0.0440(16) 0.0273(14) 0.0370(14) -0.0029(12) 0.0041(12) -0.0014(11)
C4 C4+ 0.0408(15) 0.0319(14) 0.0289(12) -0.0023(12) 0.0037(11) 0.0018(10)
#End of data_250555-ICSD


