data_109871-ICSD
#?2014 by Fachinformationszentrum Karlsruhe, and the U.S. Secretary of 
#Commerce on behalf of the United States.  All rights reserved.
_database_code_ICSD                109871
_audit_creation_date               2008/02/01
_chemical_name_systematic
;
Dipotassium Diaquadioxalatoniccolate Tetrahydrate
;
_chemical_formula_structural       'K2 (Ni (C2 O4)2 (H2 O)2) (H2 O)4'
_chemical_formula_sum              'C4 H12 K2 Ni1 O14'
_publ_section_title
;
Structure of dipotassium trans-diaquabis(oxalato-O,O')nickelate(II)-
water (1/4)
;
loop_
_citation_id
_citation_journal_abbrev
_citation_year
_citation_journal_volume
_citation_page_first
_citation_page_last
_citation_journal_id_ASTM
primary 'Acta Crystallographica, Section C: Crystal Structure Communications'
 1993 49 1336 1339 ACSCEE
_publ_author_name
;
Roman, P.;Guzman-Miralles, C.;Luque, A.
;
_cell_length_a                     8.647(6)
_cell_length_b                     6.627(2)
_cell_length_c                     12.118(3)
_cell_angle_alpha                  90
_cell_angle_beta                   101.58(1)
_cell_angle_gamma                  90
_cell_volume                       680.27
_cell_formula_units_Z              2
_symmetry_space_group_name_H-M     'P 1 21/n 1'
_symmetry_Int_Tables_number        14
_refine_ls_R_factor_all            .027
loop_
_symmetry_equiv_pos_site_id
_symmetry_equiv_pos_as_xyz
  1	'-x+.5, y+.5, -z+.5'
  2	'-x, -y, -z'
  3	'x+.5, -y+.5, z+.5'
  4	'x, y, z'
loop_
_atom_type_symbol
_atom_type_oxidation_number
C3+	3
H1+	1
K1+	1
Ni2+	2
O2-	-2
loop_
_atom_site_label
_atom_site_type_symbol
_atom_site_symmetry_multiplicity
_atom_site_Wyckoff_symbol
_atom_site_fract_x
_atom_site_fract_y
_atom_site_fract_z
_atom_site_occupancy
_atom_site_attached_hydrogens
Ni1 Ni2+ 2 a 0.00000 0.00000 0.00000 1. 0 
K1 K1+ 4 e -0.4396(1) 0.6568(1) -0.1171(1) 1. 0 
O1 O2- 4 e -0.2357(2) 0.0241(2) -0.0700(1) 1. 0 
O2 O2- 4 e -0.0440(2) 0.2647(2) 0.0697(1) 1. 0 
O3 O2- 4 e -0.0609(2) -0.1448(3) 0.1381(1) 1. 0 
C1 C3+ 4 e -0.2967(2) 0.1834(3) -0.0404(1) 1. 0 
C2 C3+ 4 e -0.1855(2) 0.3217(3) 0.0430(1) 1. 0 
O4 O2- 4 e -0.4359(2) 0.2360(3) -0.0706(1) 1. 0 
O5 O2- 4 e -0.2415(2) 0.4748(2) 0.0783(1) 1. 0 
O6 O2- 4 e 0.6636(2) 0.0102(3) 0.1842(1) 1. 0 
O7 O2- 4 e 0.3159(2) 0.0118(3) 0.3090(1) 1. 0 
H1 H1+ 4 e -0.163(5) -0.103(6) 0.143(3) 1. 0 
H2 H1+ 4 e -0.077(7) -0.27(1) 0.111(5) 1. 0 
H3 H1+ 4 e 0.591(5) -0.065(7) 0.147(4) 1. 0 
H4 H1+ 4 e 0.683(4) -0.002(7) 0.253(3) 1. 0 
H5 H1+ 4 e 0.393(5) -0.066(7) 0.340(4) 1. 0 
H6 H1+ 4 e 0.296(4) -0.010(7) 0.238(3) 1. 0 

#End of data_109871-ICSD


