data_262905-ICSD
#?2014 by Fachinformationszentrum Karlsruhe, and the U.S. Secretary of 
#Commerce on behalf of the United States.  All rights reserved.
_database_code_ICSD                262905
_audit_creation_date               2012/08/01
_chemical_name_systematic
;
Sodium Praseodymium Aqua Phosphonate
;
_chemical_formula_structural       'Na Pr (H2 O) (C H2 (P O3)2)'
_chemical_formula_sum              'C1 H4 Na1 O7 P2 Pr1'
_publ_section_title
;
Periodic trends in lanthanide and actinide phosphonates: 
discontinuity between plutonium and americium
;
loop_
_citation_id
_citation_journal_abbrev
_citation_year
_citation_journal_volume
_citation_journal_issue
_citation_page_first
_citation_page_last
_citation_journal_id_ASTM
primary 'Inorganic Chemistry' 2012 51 12 6906 6915 INOCAJ
_publ_author_name
;
Diwu Juan;Grant, D.J.;Wang Shuao;Gagliardi, L.;Albrecht-Schmitt, T.E.
;
_cell_length_a                     6.760(8)
_cell_length_b                     15.134(18)
_cell_length_c                     6.748(8)
_cell_angle_alpha                  90.00
_cell_angle_beta                   90.703(12)
_cell_angle_gamma                  90.00
_cell_volume                       690.31
_cell_formula_units_Z              4
_symmetry_space_group_name_H-M     'P 1 21/c 1'
_symmetry_Int_Tables_number        14
_refine_ls_R_factor_all            .0644
loop_
_symmetry_equiv_pos_site_id
_symmetry_equiv_pos_as_xyz
  1	'x, -y+.5, z+.5'
  2	'-x, -y, -z'
  3	'-x, y+.5, -z+.5'
  4	'x, y, z'
loop_
_atom_type_symbol
_atom_type_oxidation_number
C4+	4
H1-	-1
H1+	1
Na1+	1
O2-	-2
P3+	3
Pr3+	3
loop_
_atom_site_label
_atom_site_type_symbol
_atom_site_symmetry_multiplicity
_atom_site_Wyckoff_symbol
_atom_site_fract_x
_atom_site_fract_y
_atom_site_fract_z
_atom_site_occupancy
_atom_site_attached_hydrogens
_atom_site_U_iso_or_equiv
Pr1 Pr3+ 4 e 0.82737(14) 0.90111(7) 0.10361(13) 1 0 0.0156(3) 
P1 P3+ 4 e 0.6747(6) 1.0990(3) 0.1357(5) 1 0 0.0122(8) 
P2 P3+ 4 e 0.9721(6) 0.8409(3) -0.3928(6) 1 0 0.0126(9) 
Na1 Na1+ 4 e 0.6915(9) 1.0299(4) -0.3646(9) 1 0 0.0168(15) 
O1 O2- 4 e 0.8591(14) 0.9009(8) -0.2547(13) 1 0 0.011(2) 
O2 O2- 4 e 1.0163(15) 0.8864(7) -0.5911(15) 1 0 0.012(2) 
O3 O2- 4 e 0.8197(16) 1.0640(7) -0.0227(15) 1 0 0.014(3) 
O4 O2- 4 e 0.6332(15) 1.0208(7) 0.2754(15) 1 0 0.013(2) 
O5 O2- 4 e 0.4891(15) 1.1372(7) 0.0364(15) 1 0 0.014(2) 
O6 O2- 4 e 0.565(2) 0.8339(9) 0.358(2) 1 0 0.022(3) 
O7 O2- 4 e 0.8678(16) 0.7539(7) -0.4284(15) 1 0 0.014(2) 
C1 C4+ 4 e 0.789(2) 1.1856(10) 0.274(2) 1 0 0.011(3) 
H1 H1- 4 e 0.6985 1.2044 0.3756 1 0 0.013 
H2 H1- 4 e 0.8087 1.2354 0.1855 1 0 0.013 
H3 H1+ 4 e 0.59(3) 0.808(13) 0.43(3) 1 0 0.013 
H4 H1+ 4 e 0.53(3) 0.867(13) 0.33(3) 1 0 0.013 

loop_
_atom_site_aniso_label
_atom_site_aniso_type_symbol
_atom_site_aniso_U_11
_atom_site_aniso_U_22
_atom_site_aniso_U_33
_atom_site_aniso_U_12
_atom_site_aniso_U_13
_atom_site_aniso_U_23
Pr1 Pr3+ 0.0165(5) 0.0213(5) 0.0091(4) 0.0001(5) 0.0076(3) 0.0005(5)
P1 P3+ 0.0117(19) 0.017(2) 0.0076(18) -0.001(2) 0.0053(14) 0.0003(19)
P2 P3+ 0.014(2) 0.015(2) 0.009(2) 0.0005(18) 0.0027(16) 0.0025(17)
Na1 Na1+ 0.018(4) 0.020(4) 0.013(3) -0.009(3) 0.006(3) 0.002(3)
O1 O2- 0.014(5) 0.017(6) 0.004(5) -0.002(6) 0.005(4) -0.004(5)
O2 O2- 0.016(6) 0.009(6) 0.012(5) 0.002(5) 0.008(4) 0.002(4)
O3 O2- 0.023(6) 0.013(6) 0.006(6) -0.011(5) 0.007(5) -0.005(4)
O4 O2- 0.012(4) 0.019(4) 0.007(4) -0.002(4) 0.008(3) -0.002(3)
O5 O2- 0.016(6) 0.022(6) 0.004(5) 0.006(5) -0.004(4) -0.003(5)
O6 O2- 0.019(8) 0.025(10) 0.021(8) 0.007(6) 0.007(6) 0.005(6)
O7 O2- 0.019(4) 0.014(4) 0.008(4) -0.002(4) 0.005(3) 0.001(3)
C1 C4+ 0.011(5) 0.010(5) 0.012(5) 0.000(4) 0.003(4) 0.005(4)
#End of data_262905-ICSD


