data_157166-ICSD
#?2014 by Fachinformationszentrum Karlsruhe, and the U.S. Secretary of 
#Commerce on behalf of the United States.  All rights reserved.
_database_code_ICSD                157166
_audit_creation_date               2008/02/01
_audit_update_record               2012/02/01
_chemical_name_systematic          'Potassium Hydrogencarbonate - Iii'
_chemical_formula_structural       'K (H C O3)'
_chemical_formula_sum              'C1 H1 K1 O3'
_publ_section_title
;
The high-pressure crystal structure of potassium hydrogen carbonate 
(K H C O3)
;
loop_
_citation_id
_citation_journal_abbrev
_citation_year
_citation_journal_volume
_citation_page_first
_citation_page_last
_citation_journal_id_ASTM
primary 'American Mineralogist' 2007 92 1018 1025 AMMIAY
_publ_author_name
;
Allan, D.R.;Marshall, W.G.;Pulham, C.R.
;
_cell_length_a                     6.1443(9)
_cell_length_b                     5.2974(3)
_cell_length_c                     4.2133(2)
_cell_angle_alpha                  95.109(6)
_cell_angle_beta                   100.743(10)
_cell_angle_gamma                  108.934(10)
_cell_volume                       125.78
_cell_formula_units_Z              2
_symmetry_space_group_name_H-M     'P -1'
_symmetry_Int_Tables_number        2
_refine_ls_R_factor_all            .0402
loop_
_symmetry_equiv_pos_site_id
_symmetry_equiv_pos_as_xyz
  1	'-x, -y, -z'
  2	'x, y, z'
loop_
_atom_type_symbol
_atom_type_oxidation_number
C4+	4
H1+	1
K1+	1
O2-	-2
loop_
_atom_site_label
_atom_site_type_symbol
_atom_site_symmetry_multiplicity
_atom_site_Wyckoff_symbol
_atom_site_fract_x
_atom_site_fract_y
_atom_site_fract_z
_atom_site_occupancy
_atom_site_attached_hydrogens
K1 K1+ 2 i 0.2992(4) 0.1343(2) 0.29058(15) 1. 0 
C1 C4+ 2 i 0.2300(18) 0.5737(11) 0.9057(8) 1. 0 
H1 H1+ 2 i 0.0659 0.6921 0.5524 1. 0 
O1 O2- 2 i 0.2073(12) 0.7774(7) 0.7471(6) 1. 0 
O2 O2- 2 i 0.1054(14) 0.3326(8) 0.7682(6) 1. 0 
O3 O2- 2 i 0.3693(14) 0.6405(8) 0.1718(7) 1. 0 

#End of data_157166-ICSD


