data_109810-ICSD
#?2014 by Fachinformationszentrum Karlsruhe, and the U.S. Secretary of 
#Commerce on behalf of the United States.  All rights reserved.
_database_code_ICSD                109810
_audit_creation_date               2008/02/01
_chemical_name_systematic
;
Trilithium Pentaaquatrioxalatoferrate(III)
;
_chemical_formula_structural       'Li3 (Fe (C2 O4)3 (H2 O)5)'
_chemical_formula_sum              'C6 H10 Fe1 Li3 O17'
_publ_section_title
;
Crystal structure and Moessbauer study of trilithium iron(III) 
trioxalate pentahydrate
;
loop_
_citation_id
_citation_journal_abbrev
_citation_year
_citation_journal_volume
_citation_page_first
_citation_page_last
_citation_journal_id_ASTM
primary Polyhedron 1995 14 1943 1952 PLYHDE
_publ_author_name
;
Declercq, J.P.;Feneau-Dupont, J.;Ladriere, J.
;
_cell_length_a                     7.892(1)
_cell_length_b                     9.272(1)
_cell_length_c                     11.942(1)
_cell_angle_alpha                  104.75(1)
_cell_angle_beta                   101.69(2)
_cell_angle_gamma                  107.92(1)
_cell_volume                       765.66
_cell_formula_units_Z              2
_symmetry_space_group_name_H-M     'P -1'
_symmetry_Int_Tables_number        2
_refine_ls_R_factor_all            .036
loop_
_symmetry_equiv_pos_site_id
_symmetry_equiv_pos_as_xyz
  1	'-x, -y, -z'
  2	'x, y, z'
loop_
_atom_type_symbol
_atom_type_oxidation_number
C3+	3
Fe3+	3
H1+	1
Li1+	1
O2-	-2
loop_
_atom_site_label
_atom_site_type_symbol
_atom_site_symmetry_multiplicity
_atom_site_Wyckoff_symbol
_atom_site_fract_x
_atom_site_fract_y
_atom_site_fract_z
_atom_site_occupancy
_atom_site_attached_hydrogens
Fe1 Fe3+ 2 i 0.20886(2) 0.41395(2) 0.22624(1) 1. 0 
O1 O2- 2 i 0.4393(1) 0.5868(1) 0.2322(1) 1. 0 
O2 O2- 2 i 0.1574(1) 0.6096(1) 0.3096(1) 1. 0 
O3 O2- 2 i 0.5855(1) 0.8546(1) 0.3009(1) 1. 0 
O4 O2- 2 i 0.3067(1) 0.8782(1) 0.3965(1) 1. 0 
O5 O2- 2 i -0.0478(1) 0.2593(1) 0.2091(1) 1. 0 
O6 O2- 2 i 0.0796(1) 0.3735(1) 0.0516(1) 1. 0 
O7 O2- 2 i -0.3180(1) 0.0926(1) 0.0667(1) 1. 0 
O8 O2- 2 i -0.1979(1) 0.2325(1) -0.0928(1) 1. 0 
O9 O2- 2 i 0.3108(1) 0.2439(1) 0.1666(1) 1. 0 
O10 O2- 2 i 0.2987(1) 0.3803(1) 0.3834(1) 1. 0 
O11 O2- 2 i 0.4574(1) 0.0973(1) 0.2359(1) 1. 0 
O12 O2- 2 i 0.4462(2) 0.2393(1) 0.4612(1) 1. 0 
C1 C3+ 2 i 0.4556(1) 0.7296(1) 0.2862(1) 1. 0 
C2 C3+ 2 i 0.2940(1) 0.7440(1) 0.3360(1) 1. 0 
C3 C3+ 2 i -0.1624(1) 0.1998(1) 0.1013(1) 1. 0 
C4 C3+ 2 i -0.0918(1) 0.2732(1) 0.0094(1) 1. 0 
C5 C3+ 2 i 0.3850(1) 0.1978(1) 0.2492(1) 1. 0 
C6 C3+ 2 i 0.3785(1) 0.2780(1) 0.3774(1) 1. 0 
O13 O2- 2 i -0.5596(2) 0.2565(1) -0.0354(1) 1. 0 
O14 O2- 2 i 0.8335(2) 1.2022(2) 0.4059(1) 1. 0 
O15 O2- 2 i -0.2365(2) 0.5306(2) 0.1207(1) 1. 0 
O16 O2- 2 i -0.0738(2) 0.8201(2) 0.3788(2) 1. 0 
O17 O2- 2 i -0.2218(2) 0.4887(2) 0.3967(1) 1. 0 
Li1 Li1+ 2 i 0.5649(4) 1.0649(3) 0.3978(2) 1. 0 
Li2 Li1+ 2 i -0.4739(4) 0.0720(3) -0.1030(2) 1. 0 
Li3 Li1+ 2 i -0.1153(4) 0.5956(4) 0.2941(3) 1. 0 
H1 H1+ 2 i -0.6288(52) 0.2288(45) 0.0035(33) 1. 0 
H2 H1+ 2 i -0.6517(53) 0.2551(47) -0.0893(35) 1. 0 
H3 H1+ 2 i 0.8621(55) 1.1761(43) 0.3483(34) 1. 0 
H4 H1+ 2 i 0.9298(53) 1.1997(42) 0.4579(34) 1. 0 
H5 H1+ 2 i -0.3297(63) 0.4548(48) 0.0628(35) 1. 0 
H6 H1+ 2 i -0.1895(58) 0.4948(46) 0.1323(34) 1. 0 
H7 H1+ 2 i -0.1845(52) 0.8552(44) 0.3398(30) 1. 0 
H8 H1+ 2 i 0.0099(55) 0.8718(48) 0.3713(33) 1. 0 
H9 H1+ 2 i -0.1501(55) 0.5013(52) 0.4188(36) 1. 0 
H10 H1+ 2 i -0.2463(51) 0.5521(42) 0.4553(32) 1. 0 

#End of data_109810-ICSD


