data_427053-ICSD
#?2014 by Fachinformationszentrum Karlsruhe, and the U.S. Secretary of 
#Commerce on behalf of the United States.  All rights reserved.
_database_code_ICSD                427053
_audit_creation_date               2014/08/01
_chemical_name_systematic          'Potassium Carbamide'
_chemical_formula_structural       'C O (N H2) (N H K)'
_chemical_formula_sum              'C1 H3 K1 N2 O1'
_publ_section_title
;
The first structurally characterized salts of deprotonated urea: M (C 
N2 H3 O) with M = Na, K, Rb, and Cs
;
loop_
_citation_id
_citation_journal_abbrev
_citation_year
_citation_journal_volume
_citation_journal_issue
_citation_page_first
_citation_page_last
_citation_journal_id_ASTM
primary 'Zeitschrift fuer Anorganische und Allgemeine Chemie (1950) (DE)'
 2014 640 5 846 850 ZAACAB
_publ_author_name
;
Sawinski, Hannah;Dronskowski, Richard
;
_cell_length_a                     7.102(4)
_cell_length_b                     7.221(4)
_cell_length_c                     13.533(8)
_cell_angle_alpha                  90.00
_cell_angle_beta                   90.00
_cell_angle_gamma                  90.00
_cell_volume                       694.02
_cell_formula_units_Z              8
_symmetry_space_group_name_H-M     'P b c a'
_symmetry_Int_Tables_number        61
_refine_ls_R_factor_all            .0246
loop_
_symmetry_equiv_pos_site_id
_symmetry_equiv_pos_as_xyz
  1	'x+.5, y, -z+.5'
  2	'x, -y+.5, z+.5'
  3	'-x+.5, y+.5, z'
  4	'-x, -y, -z'
  5	'-x+.5, -y, z+.5'
  6	'-x, y+.5, -z+.5'
  7	'x+.5, -y+.5, -z'
  8	'x, y, z'
loop_
_atom_type_symbol
_atom_type_oxidation_number
C4+	4
H1+	1
K1+	1
N3-	-3
O2-	-2
loop_
_atom_site_label
_atom_site_type_symbol
_atom_site_symmetry_multiplicity
_atom_site_Wyckoff_symbol
_atom_site_fract_x
_atom_site_fract_y
_atom_site_fract_z
_atom_site_occupancy
_atom_site_attached_hydrogens
_atom_site_U_iso_or_equiv
K1 K1+ 8 c 0.89167(4) 0.95025(4) 0.306902(19) 1 0 0.01358(10) 
O1 O2- 8 c 0.53927(12) 0.87256(12) 0.37699(6) 1 0 0.01410(19) 
C1 C4+ 8 c 0.39009(15) 0.78399(17) 0.40400(9) 1 0 0.0116(2) 
N1 N3- 8 c 0.34965(15) 0.79102(15) 0.50476(7) 1 0 0.0141(2) 
N2 N3- 8 c 0.28935(15) 0.68627(15) 0.34125(8) 1 0 0.0137(2) 
H1 H1+ 8 c 0.392(2) 0.886(2) 0.5339(12) 1 0 0.021(2) 
H2 H1+ 8 c 0.238(2) 0.753(2) 0.5229(12) 1 0 0.021(2) 
H3 H1+ 8 c 0.192(2) 0.640(2) 0.3724(12) 1 0 0.021(2) 

loop_
_atom_site_aniso_label
_atom_site_aniso_type_symbol
_atom_site_aniso_U_11
_atom_site_aniso_U_22
_atom_site_aniso_U_33
_atom_site_aniso_U_12
_atom_site_aniso_U_13
_atom_site_aniso_U_23
K1 K1+ 0.01299(15) 0.01655(16) 0.01121(15) -0.00265(9) 0.00066(8) 
-0.00049(9)
O1 O2- 0.0108(4) 0.0190(4) 0.0124(4) -0.0030(3) 0.0003(3) 0.0012(3)
C1 C4+ 0.0113(5) 0.0119(5) 0.0116(5) 0.0033(4) 0.0003(4) 0.0016(4)
N1 N3- 0.0141(5) 0.0176(5) 0.0105(5) -0.0039(4) 0.0021(4) -0.0010(4)
N2 N3- 0.0139(5) 0.0136(5) 0.0137(5) -0.0022(4) 0.0012(4) -0.0009(4)
#End of data_427053-ICSD


