data_77115-ICSD
#?2014 by Fachinformationszentrum Karlsruhe, and the U.S. Secretary of 
#Commerce on behalf of the United States.  All rights reserved.
_database_code_ICSD                77115
_audit_creation_date               2003/04/01
_chemical_name_systematic          'Potassium Methylcarbonate'
_chemical_formula_structural       'K ((C H3) C O3)'
_chemical_formula_sum              'C2 H3 K1 O3'
_publ_section_title
;
Crystal structure of potassium monomethylcarbonate
;
loop_
_citation_id
_citation_journal_abbrev
_citation_year
_citation_journal_volume
_citation_page_first
_citation_page_last
_citation_journal_id_ASTM
primary 'Zeitschrift fuer Anorganische und Allgemeine Chemie (1950) (DE)'
 1994 620 1702 1706 ZAACAB
_publ_author_name                  'Adam, A.;Cirpus, V.'
_cell_length_a                     3.809(2)
_cell_length_b                     5.589(3)
_cell_length_c                     9.853(3)
_cell_angle_alpha                  100.71(2)
_cell_angle_beta                   90.06(3)
_cell_angle_gamma                  92.48(3)
_cell_volume                       205.9
_cell_formula_units_Z              2
_symmetry_space_group_name_H-M     'P -1'
_symmetry_Int_Tables_number        2
_refine_ls_R_factor_all            .022
loop_
_symmetry_equiv_pos_site_id
_symmetry_equiv_pos_as_xyz
  1	'-x, -y, -z'
  2	'x, y, z'
loop_
_atom_type_symbol
_atom_type_oxidation_number
C4+	4
H1-	-1
K1+	1
O2-	-2
loop_
_atom_site_label
_atom_site_type_symbol
_atom_site_symmetry_multiplicity
_atom_site_Wyckoff_symbol
_atom_site_fract_x
_atom_site_fract_y
_atom_site_fract_z
_atom_site_occupancy
_atom_site_attached_hydrogens
_atom_site_U_iso_or_equiv
K1 K1+ 2 i 0.12358(9) 0.28958(6) 0.12434(3) 1. 0 0 
O1 O2- 2 i 0.5949(3) 0.6500(2) 0.2596(1) 1. 0 0 
O2 O2- 2 i 0.6068(3) 0.0516(2) 0.2540(1) 1. 0 0 
O3 O2- 2 i 0.3440(3) 0.7753(2) 0.0874(1) 1. 0 0 
C1 C4+ 2 i 0.5121(4) 0.8430(3) 0.1973(1) 1. 0 0 
C2 C4+ 2 i 0.7629(5) 0.7097(4) 0.3920(2) 1. 0 0 
H1 H1- 2 i 0.966(7) 0.808(5) 0.392(3) 1. 0 0.074(8) 
H2 H1- 2 i 0.829(6) 0.561(5) 0.411(2) 1. 0 0.065(7) 
H3 H1- 2 i 0.600(5) 0.788(3) 0.460(2) 1. 0 0.046(6) 

loop_
_atom_site_aniso_label
_atom_site_aniso_type_symbol
_atom_site_aniso_U_11
_atom_site_aniso_U_22
_atom_site_aniso_U_33
_atom_site_aniso_U_12
_atom_site_aniso_U_13
_atom_site_aniso_U_23
K1 K1+ 0.0249(2) 0.0237(2) 0.0335(2) -0.0016(1) -0.0042(1) 0.0064(1)
O1 O2- 0.0362(6) 0.0238(5) 0.0321(6) 0.0009(4) -0.0076(5) 0.0083(4)
O2 O2- 0.0378(6) 0.0211(5) 0.0440(7) -0.0031(4) -0.0053(5) 0.0056(5)
O3 O2- 0.0357(6) 0.0343(6) 0.0288(6) -0.0007(5) -0.0069(5) 0.0072(5)
C1 C4+ 0.0206(7) 0.0241(7) 0.0289(7) 0.0011(5) 0.0041(5) 0.0079(6)
C2 C4+ 0.039(1) 0.049(1) 0.0333(9) 0.0058(9) -0.0090(7) 0.0119(8)
#End of data_77115-ICSD


