data_1229-ICSD
#?2014 by Fachinformationszentrum Karlsruhe, and the U.S. Secretary of 
#Commerce on behalf of the United States.  All rights reserved.
_database_code_ICSD                1229
_audit_creation_date               1980/01/01
_audit_update_record               2012/02/01
_chemical_name_systematic
;
Potassium Sodium Tetracyanoplatinate Trihydrate
;
_chemical_formula_structural       'K Na (Pt (C N)4) (H2 O)3'
_chemical_formula_sum              'C4 H6 K1 N4 Na1 O3 Pt1'
_publ_section_title
;
Structural studies of precursor and partially oxidized conducting 
complexes. X. A neutron diffraction study of potassium sodium 
tetracyanoplatinate(II) trihydrate,  K Na (Pt (C N)4) (H2 O)3
;
loop_
_citation_id
_citation_journal_abbrev
_citation_year
_citation_journal_volume
_citation_page_first
_citation_page_last
_citation_journal_id_ASTM
primary 'Acta Crystallographica B (24,1968-38,1982)' 1977 33 3155 3159 ACBCAR
_publ_author_name
;
Johnson, P.L.;Musselman, R.L.;Williams, J.M.
;
_cell_length_a                     12.965(8)
_cell_length_b                     13.765(8)
_cell_length_c                     6.522(4)
_cell_angle_alpha                  90.
_cell_angle_beta                   115.09(3)
_cell_angle_gamma                  90.
_cell_volume                       1054.11
_cell_formula_units_Z              4
_symmetry_space_group_name_H-M     'C 1 c 1'
_symmetry_Int_Tables_number        9
_refine_ls_R_factor_all            .058
loop_
_symmetry_equiv_pos_site_id
_symmetry_equiv_pos_as_xyz
  1	'x, -y, z+.5'
  2	'x, y, z'
  3	'x+.5, -y+.5, z+.5'
  4	'x+.5, y+.5, z'
loop_
_atom_type_symbol
_atom_type_oxidation_number
C2+	2
H1+	1
K1+	1
N3-	-3
Na1+	1
O2-	-2
Pt2+	2
loop_
_atom_site_label
_atom_site_type_symbol
_atom_site_symmetry_multiplicity
_atom_site_Wyckoff_symbol
_atom_site_fract_x
_atom_site_fract_y
_atom_site_fract_z
_atom_site_occupancy
_atom_site_attached_hydrogens
Pt1 Pt2+ 4 a 0 -.0037(1) 0 1. 0 
C1 C2+ 4 a 0.0479(3) -.1426(2) 0.0408(6) 1. 0 
C2 C2+ 4 a 0.1616(3) 0.0403(2) 0.1389(5) 1. 0 
C3 C2+ 4 a -.0524(3) 0.1334(1) -.0356(6) 1. 0 
C4 C2+ 4 a -.1611(3) -.0465(2) -.1488(6) 1. 0 
N1 N3- 4 a 0.0724(3) -.2240(1) 0.0649(5) 1. 0 
N2 N3- 4 a 0.2553(2) 0.0666(2) 0.2145(5) 1. 0 
N3 N3- 4 a -.0857(3) 0.2121(2) -.0533(5) 1. 0 
N4 N3- 4 a -.2548(1) -.0717(2) -.2381(5) 1. 0 
O1 O2- 4 a 0.4971(3) 0.0658(2) 0.3295(7) 1. 0 
O2 O2- 4 a 0.3682(4) 0.1451(3) -.2770(7) 1. 0 
O3 O2- 4 a 0.1461(4) 0.3328(4) 0.2320(9) 1. 0 
K1 K1+ 4 a 0.2771(5) 0.2402(4) -.0169(10) 1. 0 
Na1 Na1+ 4 a 0.0473(4) 0.4065(4) -.4879(9) 1. 0 
H1 H1+ 4 a 0.5390(6) 0.1092(5) 0.4522(13) 1. 0 
H2 H1+ 4 a 0.4184(6) 0.0709(5) 0.3061(12) 1. 0 
H3 H1+ 4 a 0.3180(6) 0.0976(6) -.3760(17) 1. 0 
H4 H1+ 4 a 0.3803(7) 0.1903(6) -.3747(14) 1. 0 
H5 H1+ 4 a 0.1269(10) 0.2742(7) 0.2875(24) 1. 0 
H6 H1+ 4 a 0.2143(9) 0.3533(12) 0.3403(20) 1. 0 

#End of data_1229-ICSD


