data_109849-ICSD
#?2014 by Fachinformationszentrum Karlsruhe, and the U.S. Secretary of 
#Commerce on behalf of the United States.  All rights reserved.
_database_code_ICSD                109849
_audit_creation_date               2008/02/01
_audit_update_record               2013/08/01
_chemical_name_systematic
;
Tripotassium Dioxalatodioxovanadate Trihydrate
;
_chemical_formula_structural       'K3 (V O2 (C2 O4)2) (H2 O)3'
_chemical_formula_sum              'C4 H6 K3 O13 V1'
_publ_section_title
;
The crystal structure of tripotassium bis(oxalato)dioxovanadate(V) 
trihydrate
;
loop_
_citation_id
_citation_journal_abbrev
_citation_year
_citation_journal_volume
_citation_page_first
_citation_page_last
_citation_journal_id_ASTM
primary 'Canadian Journal of Chemistry' 1974 52 2184 2189 CJCHAG
_publ_author_name
;
Drew, R.E.;Einstein, F.W.B.;Gransden, S.E.
;
_cell_length_a                     7.851(2)
_cell_length_b                     11.603(2)
_cell_length_c                     7.778(2)
_cell_angle_alpha                  94.26(1)
_cell_angle_beta                   110.07(1)
_cell_angle_gamma                  91.25(1)
_cell_volume                       662.83
_cell_formula_units_Z              2
_symmetry_space_group_name_H-M     'P -1'
_symmetry_Int_Tables_number        2
_refine_ls_R_factor_all            .039
loop_
_symmetry_equiv_pos_site_id
_symmetry_equiv_pos_as_xyz
  1	'-x, -y, -z'
  2	'x, y, z'
loop_
_atom_type_symbol
_atom_type_oxidation_number
C3+	3
H1+	1
K1+	1
O2-	-2
V5+	5
loop_
_atom_site_label
_atom_site_type_symbol
_atom_site_symmetry_multiplicity
_atom_site_Wyckoff_symbol
_atom_site_fract_x
_atom_site_fract_y
_atom_site_fract_z
_atom_site_occupancy
_atom_site_attached_hydrogens
_atom_site_U_iso_or_equiv
V1 V5+ 2 i -.18601(5) 0.29257(3) 0.15450(5) 1. 0 0 
K1 K1+ 2 i 0.27490(8) 0.47963(5) 0.57086(8) 1. 0 0 
K2 K1+ 2 i 0.26888(7) 0.22797(4) 0.15893(7) 1. 0 0 
K3 K1+ 2 i 0.03240(8) 0.17253(8) 0.58820(8) 1. 0 0 
O1 O2- 2 i -.0072(3) 0.3518(2) 0.3169(3) 1. 0 0 
O2 O2- 2 i -.3411(3) 0.2857(2) 0.2510(3) 1. 0 0 
O3 O2- 2 i -.0857(3) 0.1363(2) 0.1933(3) 1. 0 0 
O4 O2- 2 i -.3679(3) 0.1804(2) -.0868(3) 1. 0 0 
O5 O2- 2 i -.1280(3) -.0525(2) 0.1108(3) 1. 0 0 
O6 O2- 2 i -.4006(3) -.0034(2) -.2070(3) 1. 0 0 
C1 C3+ 2 i -.1684(4) 0.0474(2) 0.0856(3) 1. 0 0 
C2 C3+ 2 i -.3286(3) 0.0760(2) -.0859(3) 1. 0 0 
O7 O2- 2 i -.2958(3) 0.4292(2) 0.0202(3) 1. 0 0 
O8 O2- 2 i -.0600(3) 0.3016(2) -.0512(3) 1. 0 0 
O9 O2- 2 i -.3402(3) 0.5238(2) -.2296(3) 1. 0 0 
O10 O2- 2 i -.0994(4) 0.3765(2) -.3162(3) 1. 0 0 
C3 C3+ 2 i -.2674(3) 0.4499(2) -.1287(4) 1. 0 0 
C4 C3+ 2 i -.1299(4) 0.3696(2) -.1731(4) 1. 0 0 
O11 O2- 2 i 0.3187(3) 0.3200(3) -.1558(3) 1. 0 0 
O12 O2- 2 i 0.4796(4) 0.2642(3) 0.5270(4) 1. 0 0 
O13 O2- 2 i 0.2537(4) -.0024(3) 0.5130(4) 1. 0 0 
H1 H1+ 2 i 0.334(8) 0.385(5) -.103(8) 1. 0 .04 
H2 H1+ 2 i 0.418(7) 0.288(5) -.127(7) 1. 0 .04 
H3 H1+ 2 i 0.503(8) 0.215(5) 0.607(8) 1. 0 .05 
H4 H1+ 2 i 0.565(7) 0.253(5) 0.490(7) 1. 0 .05 
H5 H1+ 2 i 0.288(7) 0.013(5) 0.423(7) 1. 0 .05 
H6 H1+ 2 i 0.355(6) -.008(4) 0.589(3) 1. 0 .05 

loop_
_atom_site_aniso_label
_atom_site_aniso_type_symbol
_atom_site_aniso_U_11
_atom_site_aniso_U_22
_atom_site_aniso_U_33
_atom_site_aniso_U_12
_atom_site_aniso_U_13
_atom_site_aniso_U_23
V1 V5+ 0.0219(2) 0.0235(2) .0222(2) .0005(1) 0.0023(1) -0.0015(1)
K1 K1+ 0.0360(3) 0.0274(3) 0.0325(3) 0.0020(2) -0.0052(2) 0.0001(2)
K2 K1+ 0.0298(3) 0.0259(3) 0.0268(2) 0.0021(2) -0.0001(2) 0.0003(2)
K3 K1+ 0.0424(3) 0.0277(3) 0.0275(3) 0.0030(2) 0.0004(2) 0.0038(3)
O1 O2- 0.0339(9) 0.0368(10) 0.0278(9) -0.0111(8) 0.0011(7) -0.0022(7)
O2 O2- 0.0337(10) 0.0369(10) 0.0457(11) -0.0032(8) 0.0175(9) -0.0043(8)
O3 O2- 0.0291(8) 0.0243(8) 0.0205(7) 0.0033(6) -0.0037(6) 0.0000(6)
O4 O2- 0.0298(9) 0.0246(8) 0.0304(9) 0.0063(7) -0.0070(7) 0.0007(7)
O5 O2- 0.0505(11) 0.0239(8) 0.0291(9) 0.0065(8) -0.0014(8) 0.0042(7)
O6 O2- 0.0390(10) 0.0293(9) 0.0284(9) 0.0017(7) -0.0082(7) -0.0060(7)
C1 C3+ 0.0263(11) 0.0261(10) 0.0157(9) 0.0011(8) 0.0017(8) 0.0015(8)
C2 C3+ 0.0234(10) 0.0256(10) 0.0212(10) 0.0011(8) 0.0005(8) 0.0009(8)
O7 O2- 0.0305(9) 0.0277(8) 0.0375(10) 0.0088(7) 0.0123(8) 0.0019(7)
O8 O2- 0.0298(9) 0.0341(4) 0.0298(9) 0.0150(7) 0.0088(7) 0.0102(7)
O9 O2- 0.0329(9) 0.0267(4) 0.0474(11) 0.0110(7) 0.0054(8) 0.0099(8)
O10 O2- 0.0722(15) 0.0566(16) 0.0319(10) 0.0363(12) 0.0212(10) 0.0165(9)
C3 C3+ 0.0199(10) 0.0200(10) 0.0322(12) 0.0011(8) 0.0003(9) -0.0018(8)
C4 C3+ 0.0282(11) 0.0248(11) 0.0233(10) 0.0088(9) 0.0010(9) 0.0004(8)
O11 O2- 0.0322(10) 0.0431(12) 0.0397(11) -0.0010(9) 0.0099(9) -0.0003(9)
O12 O2- 0.0478(14) 0.0640(16) 0.0322(11) 0.0060(11) 0.0053(10) 0.0049(10)
O13 O2- 0.0336(11) 0.0734(16) 0.0358(11) 0.0008(10) 0.0048(10) 0.0092(11)
#End of data_109849-ICSD


