data_173377-ICSD
#?2014 by Fachinformationszentrum Karlsruhe, and the U.S. Secretary of 
#Commerce on behalf of the United States.  All rights reserved.
_database_code_ICSD                173377
_audit_creation_date               2008/08/01
_chemical_name_systematic
;
Sodium Iron 2-hydroxyl(phosphono)carboxylate
;
_chemical_formula_structural       'Na Fe (O3 P C H (O H) C O2)'
_chemical_formula_sum              'C2 H2 Fe1 Na1 O6 P1'
_publ_section_title
;
Syntheses, crystal structures, thermal stabilities, and magnetic and 
luminescent properties of 3D heterometal phosphonates: Na M [O3 P C H 
(O H) C O2] (M = Mn, Fe, Co, Zn)
;
loop_
_citation_id
_citation_journal_abbrev
_citation_year
_citation_journal_volume
_citation_journal_issue
_citation_page_first
_citation_page_last
_citation_journal_id_ASTM
primary 'European Journal of Inorganic Chemistry  (online)'
 2007 2007 34 5439 5446 EJICFO
_publ_author_name
;
Lai Zhuzhi;Fu Ruibiao;Hu Shengmin;Wu Xin Tao
;
_cell_length_a                     10.266(3)
_cell_length_b                     9.743(3)
_cell_length_c                     10.862(3)
_cell_angle_alpha                  90.00
_cell_angle_beta                   90.00
_cell_angle_gamma                  90.00
_cell_volume                       1086.44
_cell_formula_units_Z              8
_symmetry_space_group_name_H-M     'P b c a'
_symmetry_Int_Tables_number        61
_refine_ls_R_factor_all            .0202
loop_
_symmetry_equiv_pos_site_id
_symmetry_equiv_pos_as_xyz
  1	'x+.5, y, -z+.5'
  2	'x, -y+.5, z+.5'
  3	'-x+.5, y+.5, z'
  4	'-x, -y, -z'
  5	'-x+.5, -y, z+.5'
  6	'-x, y+.5, -z+.5'
  7	'x+.5, -y+.5, -z'
  8	'x, y, z'
loop_
_atom_type_symbol
_atom_type_oxidation_number
C2+	2
C4+	4
Fe2+	2
H1-	-1
H1+	1
Na1+	1
O2-	-2
P3+	3
loop_
_atom_site_label
_atom_site_type_symbol
_atom_site_symmetry_multiplicity
_atom_site_Wyckoff_symbol
_atom_site_fract_x
_atom_site_fract_y
_atom_site_fract_z
_atom_site_occupancy
_atom_site_attached_hydrogens
_atom_site_U_iso_or_equiv
Fe1 Fe2+ 8 c 0.67713(2) 0.08365(3) 0.60673(2) 1 0 0.00965(9) 
Na1 Na1+ 8 c 0.87593(8) -0.08433(8) 0.42573(8) 1 0 0.01822(18) 
P1 P3+ 8 c 0.59672(4) -0.22178(5) 0.45964(4) 1 0 0.00911(11) 
O1 O2- 8 c 0.44930(13) -0.21520(14) 0.47588(13) 1 0 0.0149(3) 
C1 C4+ 8 c 0.62692(17) -0.20426(18) 0.29300(17) 1 0 0.0097(3) 
H1 H1- 8 c 0.575(2) -0.268(2) 0.249(2) 1 0 0.008(5) 
C2 C2+ 8 c 0.40774(17) 0.05691(19) 0.74159(17) 1 0 0.0110(3) 
O2 O2- 8 c 0.64852(13) -0.36102(13) 0.50081(12) 1 0 0.0137(3) 
O3 O2- 8 c 0.67071(13) -0.10207(14) 0.51513(13) 1 0 0.0146(3) 
O4 O2- 8 c 0.76310(13) -0.22215(14) 0.26527(12) 1 0 0.0125(3) 
H2 H1+ 8 c 0.779(3) -0.310(3) 0.259(3) 1 0 0.036(8) 
O5 O2- 8 c 0.52379(12) 0.01841(14) 0.73321(12) 1 0 0.0144(3) 
O6 O2- 8 c 0.81459(13) -0.01896(13) 0.72348(13) 1 0 0.0147(3) 

loop_
_atom_site_aniso_label
_atom_site_aniso_type_symbol
_atom_site_aniso_U_11
_atom_site_aniso_U_22
_atom_site_aniso_U_33
_atom_site_aniso_U_12
_atom_site_aniso_U_13
_atom_site_aniso_U_23
Fe1 Fe2+ 0.00825(14) 0.01054(14) 0.01017(14) 0.00086(9) -0.00033(9) 
-0.00032(9)
Na1 Na1+ 0.0172(4) 0.0152(4) 0.0223(4) -0.0007(3) 0.0034(3) -0.0012(3)
P1 P3+ 0.0086(2) 0.0091(2) 0.0096(2) -0.00014(15) -0.00035(16) 0.00081(16)
O1 O2- 0.0095(6) 0.0179(7) 0.0172(7) 0.0001(5) 0.0008(5) 0.0053(5)
C1 C4+ 0.0089(8) 0.0086(8) 0.0115(8) -0.0009(6) 0.0007(6) -0.0014(7)
C2 C2+ 0.0124(8) 0.0106(8) 0.0100(8) -0.0007(6) 0.0011(7) -0.0002(7)
O2 O2- 0.0157(6) 0.0105(6) 0.0148(6) 0.0021(5) -0.0041(5) 0.0018(5)
O3 O2- 0.0153(7) 0.0128(6) 0.0156(7) -0.0029(5) 0.0003(5) -0.0044(5)
O4 O2- 0.0104(6) 0.0097(6) 0.0175(7) 0.0021(5) 0.0034(5) -0.0006(5)
O5 O2- 0.0106(6) 0.0158(7) 0.0170(7) 0.0022(5) 0.0012(5) 0.0039(5)
O6 O2- 0.0139(6) 0.0097(6) 0.0207(7) -0.0015(5) -0.0066(5) 0.0003(5)
#End of data_173377-ICSD


