data_250561-ICSD
#?2014 by Fachinformationszentrum Karlsruhe, and the U.S. Secretary of 
#Commerce on behalf of the United States.  All rights reserved.
_database_code_ICSD                250561
_audit_creation_date               2014/08/01
_chemical_name_systematic
;
[(Methyltellanyl)methane]trichloroaluminium(III)
;
_chemical_formula_structural       '((C H3)2 Te) Al Cl3'
_chemical_formula_sum              'C2 H6 Al1 Cl3 Te1'
_publ_section_title
;
Thio-, seleno- and telluro-ether complexes of aluminium(III) halides: 
synthesis, structures and properties
;
loop_
_citation_id
_citation_journal_abbrev
_citation_year
_citation_journal_volume
_citation_journal_issue
_citation_page_first
_citation_page_last
_citation_journal_id_ASTM
primary 'Dalton Transactions' 2014 43 9 3637 3648 DTARAF
_publ_author_name
;
George, Kathryn;Jura, Marek;Levason, William;Light, Mark E.;Reid, 
Gillian
;
_cell_length_a                     6.2476(13)
_cell_length_b                     13.114(3)
_cell_length_c                     10.514(2)
_cell_angle_alpha                  90.00
_cell_angle_beta                   90.00
_cell_angle_gamma                  90.00
_cell_volume                       861.42
_cell_formula_units_Z              4
_symmetry_space_group_name_H-M     'P b c m'
_symmetry_Int_Tables_number        57
_refine_ls_R_factor_all            .0183
loop_
_symmetry_equiv_pos_site_id
_symmetry_equiv_pos_as_xyz
  1	'x, -y+.5, z+.5'
  2	'-x, y+.5, z'
  3	'x, y, -z+.5'
  4	'-x, -y, -z'
  5	'-x, y+.5, -z+.5'
  6	'x, -y+.5, -z'
  7	'-x, -y, z+.5'
  8	'x, y, z'
loop_
_atom_type_symbol
_atom_type_oxidation_number
Al3+	3
C2+	2
Cl1-	-1
H1-	-1
Te2+	2
loop_
_atom_site_label
_atom_site_type_symbol
_atom_site_symmetry_multiplicity
_atom_site_Wyckoff_symbol
_atom_site_fract_x
_atom_site_fract_y
_atom_site_fract_z
_atom_site_occupancy
_atom_site_attached_hydrogens
_atom_site_U_iso_or_equiv
Al1 Al3+ 4 d 0.54039(12) 0.43573(5) 0.2500 1 0 0.01317(15) 
Cl1 Cl1- 4 d 0.20082(9) 0.42169(4) 0.2500 1 0 0.01742(12) 
Cl2 Cl1- 8 e 0.67397(7) 0.37693(3) 0.07969(4) 1 0 0.02111(10) 
Te1 Te2+ 4 d 0.62427(2) 0.636690(12) 0.2500 1 0 0.01562(5) 
C1 C2+ 8 e 0.8594(3) 0.63865(14) 0.39652(17) 1 0 0.0225(4) 
H1 H1- 8 e 0.9531 0.5792 0.3876 1 0 0.034 
H2 H1- 8 e 0.7885 0.6366 0.4796 1 0 0.034 
H3 H1- 8 e 0.9447 0.7011 0.3898 1 0 0.034 

loop_
_atom_site_aniso_label
_atom_site_aniso_type_symbol
_atom_site_aniso_U_11
_atom_site_aniso_U_22
_atom_site_aniso_U_33
_atom_site_aniso_U_12
_atom_site_aniso_U_13
_atom_site_aniso_U_23
Al1 Al3+ 0.0127(3) 0.0128(3) 0.0140(3) -0.0010(3) 0.000 0.000
Cl1 Cl1- 0.0128(3) 0.0204(3) 0.0191(3) -0.0006(2) 0.000 0.000
Cl2 Cl1- 0.0204(2) 0.0216(2) 0.0214(2) -0.00174(16) 0.00571(17) 
-0.00715(18)
Te1 Te2+ 0.01650(8) 0.01113(8) 0.01923(8) 0.00067(6) 0.000 0.000
C1 C2+ 0.0295(10) 0.0243(9) 0.0137(7) -0.0069(8) -0.0011(7) -0.0031(8)
#End of data_250561-ICSD


