data_110571-ICSD
#?2014 by Fachinformationszentrum Karlsruhe, and the U.S. Secretary of 
#Commerce on behalf of the United States.  All rights reserved.
_database_code_ICSD                110571
_audit_creation_date               2008/08/01
_audit_update_record               2009/02/01
_chemical_name_systematic
;
Dimethylammonium Hexaaquaaluminium Bis(sulfate(VI)) - Lt
;
_chemical_formula_structural
;
((C H3)2 N H2) (Al (H2 O)6) (S O4)2
;
_chemical_formula_sum              'C2 H20 Al1 N1 O14 S2'
_publ_section_title
;
Neutron diffraction study of the atomic structure of the 
ferroelectric phase of (C H3)2 N H2 Al (S O4)2 * 6(H2 O) 
ferroelectric-ferroelastic (DMAAS)
;
loop_
_citation_id
_citation_journal_abbrev
_citation_year
_citation_journal_volume
_citation_page_first
_citation_page_last
_citation_journal_id_ASTM
primary Kristallografiya 1999 44 61 66 KRISAJ
2 'Crystallography Reports' 1999 44 56 61 CYSTE3
_publ_author_name
;
Kazimirov, V.Yu.;Sarin, V.A.;Ritter, C.;Shuvalov, L.A.
;
_cell_length_a                     6.442(1)
_cell_length_b                     11.861(2)
_cell_length_c                     10.707(2)
_cell_angle_alpha                  90
_cell_angle_beta                   90
_cell_angle_gamma                  112.54(2)
_cell_volume                       755.61
_cell_formula_units_Z              2
_symmetry_space_group_name_H-M     'P 1 1 b'
_symmetry_Int_Tables_number        7
_refine_ls_R_factor_all            .0254
loop_
_symmetry_equiv_pos_site_id
_symmetry_equiv_pos_as_xyz
  1	'x, y+.5, -z'
  2	'x, y, z'
loop_
_atom_type_symbol
_atom_type_oxidation_number
Al3+	3
C4+	4
H1-	-1
H1+	1
N3-	-3
O2-	-2
S6+	6
loop_
_atom_site_label
_atom_site_type_symbol
_atom_site_symmetry_multiplicity
_atom_site_Wyckoff_symbol
_atom_site_fract_x
_atom_site_fract_y
_atom_site_fract_z
_atom_site_occupancy
_atom_site_attached_hydrogens
_atom_site_B_iso_or_equiv
N1 N3- 2 a 0.5335(3) 0.4531(1) 0.2377(1) 1. 0 1.68(3) 
C1 C4+ 2 a 0.7017(4) 0.5767(3) 0.2235(3) 1. 0 2.70(6) 
C2 C4+ 2 a 0.3060(4) 0.4446(2) 0.2732(2) 1. 0 2.24(5) 
Al1 Al3+ 2 a 0 0 0.2506(3) 1. 0 0.63(4) 
S1 S6+ 2 a 0.6815(5) 0.2388(3) 0.4284(3) 1. 0 0.65(7) 
S2 S6+ 2 a 0.3302(6) 0.2638(4) 0.9351(3) 1. 0 1.03(8) 
O1 O2- 2 a 0.0936(3) 0.0931(2) 0.3981(2) 1. 0 1.09(4) 
O2 O2- 2 a 0.2952(3) 0.0680(2) 0.1819(2) 1. 0 0.82(4) 
O3 O2- 2 a -.0807(3) 0.1198(2) 0.1744(2) 1. 0 0.98(4) 
O4 O2- 2 a 0.9148(3) 0.4954(2) 0.8962(2) 1. 0 1.12(4) 
O5 O2- 2 a 0.7139(3) 0.4324(2) 0.6816(2) 1. 0 1.08(4) 
O6 O2- 2 a 0.0912(3) 0.3805(2) 0.6721(2) 1. 0 1.16(4) 
O7 O2- 2 a 0.6682(3) 0.2155(2) 0.2911(2) 1. 0 1.09(4) 
O8 O2- 2 a 0.8959(3) 0.2398(2) 0.4772(2) 1. 0 1.24(5) 
O9 O2- 2 a 0.4904(3) 0.1416(2) 0.4908(2) 1. 0 1.63(5) 
O10 O2- 2 a 0.6722(4) 0.3595(2) 0.4495(2) 1. 0 1.58(6) 
O11 O2- 2 a 0.3415(3) 0.2902(2) 0.7996(2) 1. 0 1.24(4) 
O12 O2- 2 a 0.1224(3) 0.2712(2) 0.9873(2) 1. 0 1.32(5) 
O13 O2- 2 a 0.5240(3) 0.3536(2) 0.9979(2) 1. 0 1.80(5) 
O14 O2- 2 a 0.3270(4) 0.1415(2) 0.9539(2) 1. 0 1.77(6) 
H1 H1+ 2 a 0.0190(7) 0.1451(4) 0.4317(3) 1. 0 1.94(10) 
H2 H1+ 2 a 0.2417(6) 0.1131(4) 0.4399(3) 1. 0 1.74(8) 
H3 H1+ 2 a 0.4285(6) 0.1203(4) 0.2288(3) 1. 0 1.87(8) 
H4 H1+ 2 a 0.3118(6) 0.0930(4) 0.0918(3) 1. 0 1.72(8) 
H5 H1+ 2 a 0.8256(6) 0.1558(4) 0.2186(3) 1. 0 1.74(9) 
H6 H1+ 2 a 0.9937(7) 0.1725(4) 0.1032(3) 1. 0 1.87(9) 
H7 H1+ 2 a 0.9950(7) 0.3548(4) 0.9291(4) 1. 0 2.18(10) 
H8 H1+ 2 a 0.7683(7) 0.3874(4) 0.9369(4) 1. 0 2.22(10) 
H9 H1+ 2 a -0.5787(6) 0.3802(4) 0.7296(4) 1. 0 2.06(9) 
H10 H1+ 2 a 0.6888(7) 0.4058(4) 0.5916(3) 1. 0 2.01(10) 
H11 H1+ 2 a 0.1808(7) 0.3418(4) 0.7195(4) 1. 0 2.01(9) 
H12 H1+ 2 a 0.0161(7) 0.3301(4) 0.5994(4) 1. 0 2.10(10) 
H13 H1+ 2 a 0.5225(9) 0.4073(5) 0.1544(4) 1. 0 3.28(14) 
H14 H1+ 2 a 0.5906(9) 0.4118(5) 0.3081(5) 1. 0 3.5(2) 
H15 H1- 2 a 0.7176(13) 0.1242(7) 0.6890(8) 1. 0 5.7(2) 
H16 H1- 2 a 0.6463(13) 0.1235(7) 0.8487(8) 1. 0 5.5(2) 
H17 H1- 2 a 0.8607(10) 0.0757(8) 0.8008(8) 1. 0 5.2(2) 
H18 H1- 2 a 0.3214(12) 0.4956(8) 0.3579(7) 1. 0 5.8(3) 
H19 H1- 2 a 0.2492(12) 0.4892(8) 0.1989(7) 1. 0 5.3(5) 
H20 H1- 2 a 0.1994(11) 0.3556(7) 0.2850(8) 1. 0 5.2(2) 

loop_
_atom_site_aniso_label
_atom_site_aniso_type_symbol
_atom_site_aniso_B_11
_atom_site_aniso_B_22
_atom_site_aniso_B_33
_atom_site_aniso_B_12
_atom_site_aniso_B_13
_atom_site_aniso_B_23
N1 N3- 2.45(5) 1.75(5) 0.97(3) 0.91(4) -.28(4) -.02(4)
C1 C4+ 2.21(8) 2.88(10) 2.61(9) 0.54(8) 0.09(7) 0.01(9)
C2 C4+ 1.92(7) 2.59(9) 1.77(7) 0.36(7) 0.16(6) -.30(7)
Al1 Al3+ 0.59(6) 0.83(6) 0.40(5) 0.19(5) 0.08(4) -.01(5)
S1 S6+ 0.6(1) 1.31(13) 0.21(8) 0.55(10) -.14(7) -.25(8)
S2 S6+ 1.09(12) 1.25(13) 0.78(11) 0.48(11) 0.06(9) 0.16(10)
O1 O2- 0.86(5) 1.56(7) 0.88(5) 0.50(5) -.02(4) -.41(5)
O2 O2- 0.50(4) 1.19(6) 0.56(4) 0.08(4) 0.20(4) 0.08(4)
O3 O2- 1.29(6) 1.21(6) 0.70(5) 0.78(5) 0.38(5) 0.28(5)
O4 O2- 1.15(6) 1.47(7) 0.82(5) 0.58(5) 0.41(5) 0.53(5)
O5 O2- 1.11(6) 1.40(7) 0.64(5) 0.36(5) 0.09(4) -.04(5)
O6 O2- 1.29(6) 1.41(7) 0.94(5) 0.69(5) -.38(5) -.43(5)
O7 O2- 0.96(5) 1.64(7) 0.68(5) 0.53(5) -.22(4) -.43(5)
O8 O2- 1.13(6) 1.56(7) 1.20(6) 0.71(6) -.28(5) -.55(6)
O9 O2- 0.86(5) 2.52(9) 1.19(6) 0.29(6) -.29(5) 0.55(7)
O10 O2- 2.71(9) 1.97(8) 0.78(6) 1.69(8) -.37(6) -.49(6)
O11 O2- 1.21(6) 1.92(8) 0.63(5) 0.62(6) 0.16(5) 0.47(5)
O12 O2- 1.03(6) 2.00(8) 1.13(6) 0.81(5) 0.65(5) 0.71(6)
O13 O2- 1.36(7) 2.53(10) 1.14(6) 0.31(7) 0.09(6) -.55(6)
O14 O2- 3.09(10) 1.70(8) 1.04(6) 1.50(8) 0.67(7) 0.41(6)
H1 H1+ 2.29(14) 2.6(2) 1.75(13) 1.78(12) -.06(10) -.98(11)
H2 H1+ 1.28(10) 2.27(14) 1.59(11) 0.61(10) -.15(9) -.14(10)
H3 H1+ 0.96(9) 2.78(15) 1.30(11) 0.09(9) -.63(8) -.62(10)
H4 H1+ 1.60(11) 2.28(14) 1.19(10) 0.61(11) 0.42(9) 0.19(10)
H5 H1+ 1.74(12) 2.44(15) 1.54(10) 1.36(11) 0.38(9) 0.27(10)
H6 H1+ 2.13(13) 1.75(13) 1.61(11) 0.60(11) 0.84(10) 0.83(10)
H7 H1+ 1.86(13) 2.6(2) 1.97(13) 0.69(12) 0.38(10) 0.33(10)
H8 H1+ 1.99(13) 3.0(2) 1.69(12) 1.05(13) 0.91(10) 0.54(10)
H9 H1+ 1.90(13) 2.19(14) 1.88(12) 0.54(11) -.37(11) -.21(12)
H10 H1+ 2.26(14) 2.6(2) 1.17(10) 0.92(12) -.19(10) -.37(11)
H11 H1+ 2.33(14) 2.10(14) 1.82(12) 1.09(12) -.27(11) 0.17(11)
H12 H1+ 2.21(14) 2.9(2) 1.54(11) 1.33(13) -.34(11) -.43(121)
H13 H1+ 3.7(2) 3.3(2) 2.2(2) 0.7(2) 0.34(14) -1.05(15)
H14 H1+ 4.0(2) 3.3(2) 3.2(2) 1.4(2) -.5(2) 1.0(2)
H15 H1- 5.9(4) 3.5(3) 5.6(4) -.6(3) -.7(3) 2.1(3)
H16 H1- 5.0(3) 4.1(3) 7.0(4) 1.1(3) 0.4(3) -3.3(3)
H17 H1- 2.4(2) 6.1(4) 6.7(4) 1.2(2) -.5(2) 0.2(3)
H18 H1- 4.3(3) 7.7(5) 4.6(3) 1.2(3) 0.7(3) -3.2(3)
H19 H1- 3.9(3) 7.6(5) 5.1(3) 3.2(3) 0.4(2) 2.8(3)
H20 H1- 4.0(3) 4.0(3) 6.2(4) -.1(2) 1.2(3) 1.1(3)
#End of data_110571-ICSD


