data_109956-ICSD
#?2014 by Fachinformationszentrum Karlsruhe, and the U.S. Secretary of 
#Commerce on behalf of the United States.  All rights reserved.
_database_code_ICSD                109956
_audit_creation_date               2008/02/01
_chemical_name_systematic          'Dipotassium Pentaformatobismuthate'
_chemical_formula_structural       'K2 (Bi (H C O O)5)'
_chemical_formula_sum              'C5 H5 Bi1 K2 O10'
_publ_section_title
;
Stereochemistry of double formates. Crystal structure of dipotassium 
pentaformatobismuthate, K2 (Bi (C H O2)5)
;
loop_
_citation_id
_citation_journal_abbrev
_citation_year
_citation_journal_volume
_citation_page_first
_citation_page_last
_citation_journal_id_ASTM
primary 'Koordinatsionnaya Khimiya (= Coordination Chemistry (USSR))'
 1983 9 1118 1120 KOKHDC
_publ_author_name
;
Antsyshkina, A.S.;Porai Koshits, M.A.;Ostrikova, V.N.
;
_cell_length_a                     7.984(2)
_cell_length_b                     11.875(3)
_cell_length_c                     12.234(4)
_cell_angle_alpha                  90
_cell_angle_beta                   94.47(2)
_cell_angle_gamma                  90
_cell_volume                       1156.38
_cell_formula_units_Z              4
_symmetry_space_group_name_H-M     'C 1 2/c 1'
_symmetry_Int_Tables_number        15
_refine_ls_R_factor_all            .052
loop_
_symmetry_equiv_pos_site_id
_symmetry_equiv_pos_as_xyz
  1	'x, -y, z+.5'
  2	'-x, -y, -z'
  3	'-x, y, -z+.5'
  4	'x, y, z'
  5	'x+.5, -y+.5, z+.5'
  6	'-x+.5, -y+.5, -z'
  7	'-x+.5, y+.5, -z+.5'
  8	'x+.5, y+.5, z'
loop_
_atom_type_symbol
_atom_type_oxidation_number
Bi3+	3
C2+	2
H1+	1
K1+	1
O2-	-2
loop_
_atom_site_label
_atom_site_type_symbol
_atom_site_symmetry_multiplicity
_atom_site_Wyckoff_symbol
_atom_site_fract_x
_atom_site_fract_y
_atom_site_fract_z
_atom_site_occupancy
_atom_site_attached_hydrogens
Bi1 Bi3+ 4 e 0 0.16895 0.25 1. 0 
K1 K1+ 8 f 0.39790 0.35290 0.38110 1. 0 
O1 O2- 8 f 0.16260 0.00060 0.31310 1. 0 
O2 O2- 8 f 0.23760 0.14860 0.40910 1. 0 
O3 O2- 8 f -0.13540 0.10740 0.41990 1. 0 
O4 O2- 8 f -0.30710 0.22050 0.32000 1. 0 
O5 O2- 8 f -0.05380 0.36630 0.16420 1. 0 
C1 C2+ 8 f 0.25130 0.04860 0.38550 1. 0 
C2 C2+ 8 f -0.27040 0.15810 0.39840 1. 0 
C3 C2+ 4 e 0 0.41330 0.25 1. 0 
H1 H1+ 8 f 0.34400 0.00000 0.43100 1. 0 
H2 H1+ 8 f -0.36700 0.14500 0.45400 1. 0 
H3 H1+ 4 e 0 0.50000 0.25 1. 0 

#End of data_109956-ICSD


