data_261929-ICSD
#?2014 by Fachinformationszentrum Karlsruhe, and the U.S. Secretary of 
#Commerce on behalf of the United States.  All rights reserved.
_database_code_ICSD                261929
_audit_creation_date               2012/02/01
_chemical_name_systematic
;
Poly(tetraaquadi-mu4-oxalato-lutetium(III)potassium)
;
_chemical_formula_structural       'K Lu (C2 O4)2 (H2 O)4'
_chemical_formula_sum              'C4 H8 K1 Lu1 O12'
_publ_section_title
;
Poly[tetraaquadi-mu4-oxalato-lutetium(III)potassium]
;
loop_
_citation_id
_citation_journal_abbrev
_citation_year
_citation_journal_volume
_citation_journal_issue
_citation_page_first
_citation_page_last
_citation_journal_id_ASTM
primary 'Acta Crystallographica, Section E. Structure Reports Online'
 2011 67 11 m1591 m1591 ACSEBH
_publ_author_name
;
Zhang Fengming;Sun Taozhu;Hou Guangfeng;Yan Pengfei;Li Guangming
;
_cell_length_a                     11.3337
_cell_length_b                     11.3337
_cell_length_c                     8.9121(18)
_cell_angle_alpha                  90.00
_cell_angle_beta                   90.00
_cell_angle_gamma                  90.00
_cell_volume                       1144.78
_cell_formula_units_Z              4
_symmetry_space_group_name_H-M     'I 41/a Z'
_symmetry_Int_Tables_number        88
_refine_ls_R_factor_all            .0143
loop_
_symmetry_equiv_pos_site_id
_symmetry_equiv_pos_as_xyz
  1	'-y+.75, x+.75, -z+.75'
  2	'y+.25, -x+.75, -z+.75'
  3	'x, y+.5, -z'
  4	'-x, -y, -z'
  5	'y+.25, -x+.25, z+.25'
  6	'-y+.75, x+.25, z+.25'
  7	'-x, -y+.5, z'
  8	'x, y, z'
  9	'-y+.25, x+.25, -z+.25'
 10	'y+.75, -x+.25, -z+.25'
 11	'x+.5, y, -z+.5'
 12	'-x+.5, -y+.5, -z+.5'
 13	'y+.75, -x+.75, z+.75'
 14	'-y+.25, x+.75, z+.75'
 15	'-x+.5, -y, z+.5'
 16	'x+.5, y+.5, z+.5'
loop_
_atom_type_symbol
_atom_type_oxidation_number
C3+	3
H1+	1
K1+	1
Lu3+	3
O2-	-2
loop_
_atom_site_label
_atom_site_type_symbol
_atom_site_symmetry_multiplicity
_atom_site_Wyckoff_symbol
_atom_site_fract_x
_atom_site_fract_y
_atom_site_fract_z
_atom_site_occupancy
_atom_site_attached_hydrogens
_atom_site_U_iso_or_equiv
O1 O2- 16 f 0.3564(3) 0.0435(3) 0.4179(4) 1 0 0.0588(9) 
H1 H1+ 16 f 0.3981 -0.0060 0.3698 1 0 0.088 
H2 H1+ 16 f 0.3356 0.0106 0.4995 1 0 0.088 
O2 O2- 16 f 0.5074(2) 0.36714(18) 0.0938(2) 1 0 0.0216(5) 
O3 O2- 16 f 0.5037(2) 0.55246(18) 0.1842(2) 1 0 0.0229(5) 
C1 C3+ 16 f 0.5028(3) 0.4761(3) 0.0803(3) 1 0 0.0167(6) 
K1 K1+ 4 a 0.5000 0.2500 0.3750 1 0 0.0300(3) 
Lu1 Lu3+ 4 b 0.5000 0.2500 -0.1250 1 0 0.01106(8) 

loop_
_atom_site_aniso_label
_atom_site_aniso_type_symbol
_atom_site_aniso_U_11
_atom_site_aniso_U_22
_atom_site_aniso_U_33
_atom_site_aniso_U_12
_atom_site_aniso_U_13
_atom_site_aniso_U_23
O1 O2- 0.081(2) 0.0483(19) 0.0472(19) 0.0081(17) 0.0202(18) -0.0078(15)
O2 O2- 0.0371(13) 0.0112(9) 0.0164(11) -0.0010(8) -0.0012(9) 0.0000(8)
O3 O2- 0.0411(13) 0.0127(10) 0.0149(10) 0.0009(9) -0.0012(10) -0.0011(8)
C1 C3+ 0.0198(14) 0.0159(14) 0.0143(14) -0.0008(11) -0.0012(11) 0.0010(11)
K1 K1+ 0.0351(5) 0.0351(5) 0.0199(7) 0.000 0.000 0.000
Lu1 Lu3+ 0.01045(9) 0.01045(9) 0.01229(13) 0.000 0.000 0.000
#End of data_261929-ICSD


