data_109939-ICSD
#?2014 by Fachinformationszentrum Karlsruhe, and the U.S. Secretary of 
#Commerce on behalf of the United States.  All rights reserved.
_database_code_ICSD                109939
_audit_creation_date               2008/02/01
_chemical_name_systematic
;
Dipotassium Dioxalatocuprate Tetrahydrate
;
_chemical_formula_structural       'K2 (Cu (C2 O4)2) (H2 O)4'
_chemical_formula_sum              'C4 H8 Cu1 K2 O12'
_publ_section_title
;
The X-ray crystal structural characterization of dipotassium 
bisoxalato copper(II) tetrahydrate, (K2 Cu (ox)2 * 4(H2 O))
;
loop_
_citation_id
_citation_journal_abbrev
_citation_year
_citation_journal_volume
_citation_page_first
_citation_page_last
_citation_journal_id_ASTM
primary 'Inorganica Chimica Acta' 2001 319 240 246 ICHAA3
_publ_author_name
;
Fan Jian;Sun Weiyin;Okamura, T.;Yu Kaibei;Ueyama, N.
;
_cell_length_a                     3.777(1)
_cell_length_b                     14.819(3)
_cell_length_c                     10.756(2)
_cell_angle_alpha                  90
_cell_angle_beta                   93.18(1)
_cell_angle_gamma                  90
_cell_volume                       601.1
_cell_formula_units_Z              2
_symmetry_space_group_name_H-M     'P 1 21/n 1'
_symmetry_Int_Tables_number        14
_refine_ls_R_factor_all            .0301
loop_
_symmetry_equiv_pos_site_id
_symmetry_equiv_pos_as_xyz
  1	'-x+.5, y+.5, -z+.5'
  2	'-x, -y, -z'
  3	'x+.5, -y+.5, z+.5'
  4	'x, y, z'
loop_
_atom_type_symbol
_atom_type_oxidation_number
C3+	3
Cu2+	2
H1+	1
K1+	1
O2-	-2
loop_
_atom_site_label
_atom_site_type_symbol
_atom_site_symmetry_multiplicity
_atom_site_Wyckoff_symbol
_atom_site_fract_x
_atom_site_fract_y
_atom_site_fract_z
_atom_site_occupancy
_atom_site_attached_hydrogens
Cu1 Cu2+ 2 b -0.50000 0.50000 0.00000 1. 0 
K1 K1+ 4 e -0.21354(17) 0.36682(4) 0.51380(6) 1. 0 
O1 O2- 4 e -0.5024(6) 0.46968(14) 0.17505(17) 1. 0 
O2 O2- 4 e -0.2870(6) 0.52127(14) 0.35835(18) 1. 0 
O3 O2- 4 e -0.1598(6) 0.59098(14) 0.05378(17) 1. 0 
O4 O2- 4 e 0.0618(6) 0.65354(14) 0.22959(19) 1. 0 
O5 O2- 4 e -0.8071(7) 0.32989(16) 0.3166(2) 1. 0 
O6 O2- 4 e -0.6982(7) 0.23305(16) 0.5735(2) 1. 0 
C1 C3+ 4 e -0.3177(7) 0.52426(18) 0.2445(3) 1. 0 
C2 C3+ 4 e -0.1208(7) 0.59728(18) 0.1725(2) 1. 0 
H1 H1+ 4 e -0.745(10) 0.3728(10) 0.267(2) 1. 0 
H2 H1+ 4 e -0.734(9) 0.2758(9) 0.293(2) 1. 0 
H3 H1+ 4 e -0.685(9) 0.217(2) 0.6495(12) 1. 0 
H4 H1+ 4 e -0.606(11) 0.200(3) 0.5189(14) 1. 0 

#End of data_109939-ICSD


