data_100720-ICSD
#?2014 by Fachinformationszentrum Karlsruhe, and the U.S. Secretary of 
#Commerce on behalf of the United States.  All rights reserved.
_database_code_ICSD                100720
_audit_creation_date               1981/12/31
_audit_update_record               1999/01/19
_chemical_name_systematic
;
Sodium Dicalcium Tetraaluminium Tetrakis(carbonate) Octahydroxide 
Chloride
;
_chemical_formula_structural       'Na Ca2 Al4 (C O3)4 (O H)8 Cl'
_chemical_formula_sum              'C4 H8 Al4 Ca2 Cl1 Na1 O20'
_chemical_name_mineral             Tunisite
_publ_section_title
;
Tunisit: Kristallstruktur und Revision der chemischen Formel
;
loop_
_citation_id
_citation_journal_abbrev
_citation_year
_citation_journal_volume
_citation_page_first
_citation_page_last
_citation_journal_id_ASTM
primary
;
TMPM. Tschermaks Mineralogische und Petrographische Mitteilungen 
(1979-)
;
 1981 28 65 77 TTMMDZ
_publ_author_name
;
Effenberger, H.;Kluger, F.;Pertlik, F.;Zemann, J.
;
_cell_length_a                     11.1983(11)
_cell_length_b                     11.1983(11)
_cell_length_c                     6.5637(7)
_cell_angle_alpha                  90.
_cell_angle_beta                   90.
_cell_angle_gamma                  90.
_cell_volume                       823.1
_cell_formula_units_Z              2
_symmetry_space_group_name_H-M     'P 4/n m m Z'
_symmetry_Int_Tables_number        129
_refine_ls_R_factor_all            .059
loop_
_symmetry_equiv_pos_site_id
_symmetry_equiv_pos_as_xyz
  1	'y+.5, x+.5, -z'
  2	'-y, x+.5, -z'
  3	'y+.5, -x, -z'
  4	'-y, -x, -z'
  5	'x+.5, y+.5, -z'
  6	'-x, y+.5, -z'
  7	'x+.5, -y, -z'
  8	'-x, -y, -z'
  9	'-y+.5, -x+.5, z'
 10	'y, -x+.5, z'
 11	'-y+.5, x, z'
 12	'y, x, z'
 13	'-x+.5, -y+.5, z'
 14	'x, -y+.5, z'
 15	'-x+.5, y, z'
 16	'x, y, z'
loop_
_atom_type_symbol
_atom_type_oxidation_number
Al3+	3
C4+	4
Ca2+	2
Cl1-	-1
H1+	1
Na1+	1
O2-	-2
loop_
_atom_site_label
_atom_site_type_symbol
_atom_site_symmetry_multiplicity
_atom_site_Wyckoff_symbol
_atom_site_fract_x
_atom_site_fract_y
_atom_site_fract_z
_atom_site_occupancy
_atom_site_attached_hydrogens
_atom_site_B_iso_or_equiv
Na1 Na1+ 2 c 0.25 0.25 0.93704(61) 1. 0 0 
Ca1 Ca2+ 4 d 0 0 0 1. 0 0 
Al1 Al3+ 8 h 0.40479(5) -.40479(5) 0.5 1. 0 0 
O1 O2- 8 i 0.25 0.90696(18) 0.59918(28) 1. 0 0 
O2 O2- 8 j 0.43878(13) 0.43878(13) 0.60715(29) 1. 0 0 
C1 C4+ 8 i 0.25 0.51396(23) 0.15653(39) 1. 0 0 
O3 O2- 16 k 0.46093(13) 0.64970(12) 0.75908(19) 1. 0 0 
O4 O2- 8 i 0.25 0.46534(21) 0.98187(30) 1. 0 0 
Cl1 Cl1- 2 c 0.25 0.25 0.46863(38) 1. 0 0 
H1 H1+ 8 i 0.25 0.934(5) 0.720(8) 1. 0 0.77(95) 
H2 H1+ 8 j 0.391(4) 0.391(4) 0.577(9) 1. 0 2.210(14) 

#End of data_100720-ICSD


