data_78372-ICSD
#?2014 by Fachinformationszentrum Karlsruhe, and the U.S. Secretary of 
#Commerce on behalf of the United States.  All rights reserved.
_database_code_ICSD                78372
_audit_creation_date               1996/04/22
_chemical_name_systematic          'Calcium Chloride - Urea (1/4)'
_chemical_formula_structural       '(Ca Cl2) (O C (N H2)2)4'
_chemical_formula_sum              'C4 H16 Ca1 Cl2 N8 O4'
_publ_section_title
;
Preparation and crystal structure of Ca Cl2 . (O C (NH2)2)4
;
loop_
_citation_id
_citation_journal_abbrev
_citation_year
_citation_journal_volume
_citation_journal_issue
_citation_page_first
_citation_page_last
_citation_journal_id_ASTM
primary 'Journal of Sciences, Islamic Republic of Iran' 1992 3 3 97 100 JSIIEN
_publ_author_name                  'Taeb, A.'
_cell_length_a                     7.633(3)
_cell_length_b                     12.451(5)
_cell_length_c                     8.118(4)
_cell_angle_alpha                  90.
_cell_angle_beta                   113.17(3)
_cell_angle_gamma                  90.
_cell_volume                       709.29
_cell_formula_units_Z              2
_symmetry_space_group_name_H-M     'P 1 21/a 1'
_symmetry_Int_Tables_number        14
_refine_ls_R_factor_all            .041
loop_
_symmetry_equiv_pos_site_id
_symmetry_equiv_pos_as_xyz
  1	'x+.5, -y+.5, z'
  2	'-x, -y, -z'
  3	'-x+.5, y+.5, -z'
  4	'x, y, z'
loop_
_atom_type_symbol
_atom_type_oxidation_number
C4+	4
Ca2+	2
Cl1-	-1
H1+	1
N3-	-3
O2-	-2
loop_
_atom_site_label
_atom_site_type_symbol
_atom_site_symmetry_multiplicity
_atom_site_Wyckoff_symbol
_atom_site_fract_x
_atom_site_fract_y
_atom_site_fract_z
_atom_site_occupancy
_atom_site_attached_hydrogens
_atom_site_B_iso_or_equiv
Ca1 Ca2+ 2 c 0.5 0 0 1. 0 0 
Cl1 Cl1- 4 e 0.22367(8) 0.07337(5) 0.68649(8) 1. 0 0 
O1 O2- 4 e 0.7248(2) 0.1020(1) 0.9507(2) 1. 0 0 
O2 O2- 4 e 0.4475(2) 0.1447(1) 0.1512(2) 1. 0 0 
N1 N3- 4 e 0.8472(3) 0.0112(2) 0.7827(3) 1. 0 0 
N2 N3- 4 e 0.9466(3) 0.1788(2) 0.8760(3) 1. 0 0 
N3 N3- 4 e 0.6090(4) 0.1516(2) 0.4474(3) 1. 0 0 
N4 N3- 4 e 0.4534(3) 0.2967(2) 0.2968(3) 1. 0 0 
C1 C4+ 4 e 0.8364(3) 0.0968(2) 0.8729(3) 1. 0 0 
C2 C4+ 4 e 0.5025(3) 0.1959(2) 0.2946(3) 1. 0 0 
H1 H1+ 4 e 0.915(3) 0.007(2) 0.738(3) 1. 0 3.2(6) 
H2 H1+ 4 e 0.935(3) 0.231(2) 0.920(4) 1. 0 5.3(8) 
H3 H1+ 4 e 0.021(3) 0.170(2) 0.831(3) 1. 0 4.4(7) 
H4 H1+ 4 e 0.644(4) 0.094(2) 0.450(4) 1. 0 5.5(8) 
H5 H1+ 4 e 0.650(4) 0.196(2) 0.544(4) 1. 0 6.0(8) 
H6 H1+ 4 e 0.376(4) 0.322(2) 0.200(4) 1. 0 5.0(7) 
H7 H1+ 4 e 0.497(3) 0.323(2) 0.397(4) 1. 0 4.8(7) 
H8 H1+ 4 e 0.777(3) 0.044(2) 0.781(4) 1. 0 5.2(7) 

loop_
_atom_site_aniso_label
_atom_site_aniso_type_symbol
_atom_site_aniso_U_11
_atom_site_aniso_U_22
_atom_site_aniso_U_33
_atom_site_aniso_U_12
_atom_site_aniso_U_13
_atom_site_aniso_U_23
Ca1 Ca2+ 0.0237(2) 0.0211(2) 0.0278(2) -.0012(2) 0.0096(2) -.0015(3)
Cl1 Cl1- 0.0363(2) 0.0432(3) 0.0323(2) 0.0077(3) 0.0092(2) 0.0052(3)
O1 O2- 0.0324(6) 0.0328(8) 0.0424(7) -.0070(6) 0.0197(5) -.0037(7)
O2 O2- 0.0399(8) 0.0272(8) 0.0339(7) 0.0030(7) 0.0100(6) -.0073(7)
N1 N3- 0.0394(9) 0.030(1) 0.0454(9) -.0009(8) 0.0197(7) -.0052(9)
N2 N3- 0.0490(9) 0.030(1) 0.063(1) -.0076(8) 0.0355(7) -.003(1)
N3 N3- 0.101(2) 0.057(1) 0.033(1) 0.033(1) 0.015(1) 0.007(1)
N4 N3- 0.068(1) 0.030(1) 0.033(1) 0.009(1) 0.0092(9) -.0075(9)
C1 C4+ 0.0261(9) 0.026(1) 0.0286(9) 0.0010(8) 0.0061(7) 0.0049(9)
C2 C4+ 0.0346(9) 0.031(1) 0.0299(9) 0.0014(9) 0.0132(7) -.0006(9)
#End of data_78372-ICSD


