data_249624-ICSD
#?2014 by Fachinformationszentrum Karlsruhe, and the U.S. Secretary of 
#Commerce on behalf of the United States.  All rights reserved.
_database_code_ICSD                249624
_audit_creation_date               2008/08/01
_chemical_name_systematic
;
Bis(octahydrotriborato) Bis(dimethylether) Magnesium
;
_chemical_formula_structural       'Mg (B3 H8)2 (C H3 O C H3)2'
_chemical_formula_sum              'C4 H28 B6 Mg1 O2'
_publ_section_title
;
Volatile magnesium octahydrotriborate complexes as potential CVD 
precursors to Mg B2. Synthesis and characterisation of Mg (B3 H8)2 
and its etherates
;
loop_
_citation_id
_citation_journal_abbrev
_citation_year
_citation_journal_volume
_citation_journal_issue
_citation_page_first
_citation_page_last
_citation_journal_id_ASTM
primary 'Inorganic Chemistry' 2007 46 22 9060 9066 INOCAJ
_publ_author_name
;
Kim Do Young;Yang Yu;Abelson, J.R.;Girolami, G.S.
;
_cell_length_a                     13.9644(19)
_cell_length_b                     6.9088(10)
_cell_length_c                     16.034(2)
_cell_angle_alpha                  90.00
_cell_angle_beta                   90.00
_cell_angle_gamma                  90.00
_cell_volume                       1546.92
_cell_formula_units_Z              4
_symmetry_space_group_name_H-M     'P c a 21'
_symmetry_Int_Tables_number        29
_refine_ls_R_factor_all            .0347
loop_
_symmetry_equiv_pos_site_id
_symmetry_equiv_pos_as_xyz
  1	'x+.5, -y, z'
  2	'-x+.5, y, z+.5'
  3	'-x, -y, z+.5'
  4	'x, y, z'
loop_
_atom_type_symbol
_atom_type_oxidation_number
B3+	3
C3+	3
H1-	-1
Mg2+	2
O2-	-2
loop_
_atom_site_label
_atom_site_type_symbol
_atom_site_symmetry_multiplicity
_atom_site_Wyckoff_symbol
_atom_site_fract_x
_atom_site_fract_y
_atom_site_fract_z
_atom_site_occupancy
_atom_site_attached_hydrogens
_atom_site_U_iso_or_equiv
Mg1 Mg2+ 4 a 0.03692(4) 0.28702(8) 0.11060(4) 1 0 0.04239(18) 
B1 B3+ 4 a 0.19445(19) 0.3172(4) 0.02869(18) 1 0 0.0551(7) 
H1 H1- 4 a 0.1541(13) 0.190(3) 0.0569(13) 1 0 0.053(6) 
H2 H1- 4 a 0.2644(15) 0.344(3) 0.0621(15) 1 0 0.069(6) 
H3 H1- 4 a 0.2099(17) 0.262(3) -0.0342(16) 1 0 0.071(7) 
B2 B3+ 4 a 0.1262(2) 0.5369(4) 0.0223(2) 1 0 0.0531(7) 
H4 H1- 4 a 0.0473(14) 0.529(2) 0.0458(12) 1 0 0.046(5) 
H5 H1- 4 a 0.1685(13) 0.663(3) 0.0501(12) 1 0 0.053(6) 
H6 H1- 4 a 0.1101(17) 0.582(3) -0.0424(15) 1 0 0.076(7) 
B3 B3+ 4 a 0.1616(2) 0.4133(5) -0.07183(19) 1 0 0.0699(9) 
H7 H1- 4 a 0.1069(16) 0.341(3) -0.1050(14) 1 0 0.060(6) 
H8 H1- 4 a 0.2170(16) 0.482(3) -0.1066(14) 1 0 0.074(7) 
B4 B3+ 4 a 0.0617(2) 0.0518(4) 0.23200(18) 1 0 0.0593(7) 
H9 H1- 4 a 0.0423(13) 0.036(3) 0.1603(15) 1 0 0.070(6) 
H10 H1- 4 a 0.0003(17) 0.006(3) 0.2679(16) 1 0 0.066(6) 
H11 H1- 4 a 0.1181(19) -0.072(4) 0.2397(16) 1 0 0.094(9) 
B5 B3+ 4 a 0.1073(2) 0.2837(4) 0.25881(17) 1 0 0.0522(7) 
H12 H1- 4 a 0.1156(13) 0.387(3) 0.2042(13) 1 0 0.057(6) 
H13 H1- 4 a 0.0654(16) 0.347(3) 0.3098(15) 1 0 0.067(6) 
H14 H1- 4 a 0.1864(17) 0.278(3) 0.2794(15) 1 0 0.071(7) 
B6 B3+ 4 a 0.1847(2) 0.0793(4) 0.2641(2) 1 0 0.0667(8) 
H15 H1- 4 a 0.2412(15) 0.071(3) 0.2159(13) 1 0 0.061(6) 
H16 H1- 4 a 0.2085(16) 0.021(3) 0.3292(15) 1 0 0.077(7) 
O1 O2- 4 a -0.04395(10) 0.1603(2) 0.02085(9) 1 0 0.0536(4) 
C1 C3+ 4 a -0.0253(2) -0.0274(3) -0.01329(16) 1 0 0.0745(8) 
H17 H1- 4 a -0.0849 -0.1026 -0.0144 1 0 0.112 
H18 H1- 4 a 0.0220 -0.0943 0.0214 1 0 0.112 
H19 H1- 4 a -0.0005 -0.0138 -0.0702 1 0 0.112 
C2 C3+ 4 a -0.11443(19) 0.2638(4) -0.02740(16) 1 0 0.0732(8) 
H20 H1- 4 a -0.0902 0.2843 -0.0841 1 0 0.110 
H21 H1- 4 a -0.1273 0.3892 -0.0012 1 0 0.110 
H22 H1- 4 a -0.1737 0.1881 -0.0298 1 0 0.110 
O2 O2- 4 a -0.07850(9) 0.41970(19) 0.16029(9) 1 0 0.0505(4) 
C3 C3+ 4 a -0.15734(16) 0.3118(4) 0.19478(18) 1 0 0.0732(8) 
H23 H1- 4 a -0.1459 0.2886 0.2542 1 0 0.110 
H24 H1- 4 a -0.1631 0.1876 0.1657 1 0 0.110 
H25 H1- 4 a -0.2167 0.3858 0.1879 1 0 0.110 
C4 C3+ 4 a -0.07279(18) 0.6100(3) 0.19511(14) 1 0 0.0628(7) 
H26 H1- 4 a -0.1340 0.6767 0.1872 1 0 0.094 
H27 H1- 4 a -0.0218 0.6827 0.1671 1 0 0.094 
H28 H1- 4 a -0.0586 0.6008 0.2548 1 0 0.094 

loop_
_atom_site_aniso_label
_atom_site_aniso_type_symbol
_atom_site_aniso_U_11
_atom_site_aniso_U_22
_atom_site_aniso_U_33
_atom_site_aniso_U_12
_atom_site_aniso_U_13
_atom_site_aniso_U_23
Mg1 Mg2+ 0.0453(3) 0.0446(3) 0.0372(3) -0.0007(3) 0.0014(4) -0.0042(4)
B1 B3+ 0.0494(16) 0.073(2) 0.0432(15) 0.0098(14) 0.0056(14) 0.0000(15)
B2 B3+ 0.0526(16) 0.0606(18) 0.0461(16) 0.0017(13) 0.0079(14) 0.0093(14)
B3 B3+ 0.067(2) 0.097(3) 0.0451(17) 0.0161(19) 0.0109(17) 0.0108(17)
B4 B3+ 0.074(2) 0.0552(18) 0.0484(18) -0.0099(15) -0.0033(15) 0.0064(13)
B5 B3+ 0.0531(17) 0.0636(18) 0.0400(15) -0.0020(13) -0.0031(12) -0.0032(15)
B6 B3+ 0.070(2) 0.063(2) 0.067(2) -0.0011(15) -0.0058(17) 0.0152(16)
O1 O2- 0.0591(9) 0.0519(9) 0.0498(9) 0.0073(7) -0.0098(8) -0.0164(7)
C1 C3+ 0.097(2) 0.0589(16) 0.0678(18) 0.0084(14) -0.0148(15) -0.0218(14)
C2 C3+ 0.0678(17) 0.0824(18) 0.0693(17) 0.0189(14) -0.0256(14) -0.0158(14)
O2 O2- 0.0458(8) 0.0540(9) 0.0516(9) -0.0047(7) 0.0094(7) -0.0102(7)
C3 C3+ 0.0526(15) 0.0898(19) 0.0772(18) -0.0129(13) 0.0170(13) 0.0057(16)
C4 C3+ 0.0732(15) 0.0576(15) 0.0576(15) 0.0041(12) 0.0054(12) -0.0216(13)
#End of data_249624-ICSD


