data_262079-ICSD
#?2014 by Fachinformationszentrum Karlsruhe, and the U.S. Secretary of 
#Commerce on behalf of the United States.  All rights reserved.
_database_code_ICSD                262079
_audit_creation_date               2012/02/01
_chemical_name_systematic
;
Bis(tetrahydridoborate) Hemi(dimethylsulphido) Magnesium
;
_chemical_formula_structural       'Mg (B H4)2 (S (C H3)2)0.5'
_chemical_formula_sum              'C1 H11 B2 Mg1 S0.5'
_publ_section_title
;
Porous and dense magnesium borohydride frameworks: synthesis, 
stability, and reversible absorption of guest species
;
loop_
_citation_id
_citation_journal_abbrev
_citation_year
_citation_journal_volume
_citation_journal_issue
_citation_page_first
_citation_page_last
_citation_journal_id_ASTM
primary 'Angewandte Chemie. International Edition' 2011 50 47 11162 11166 ACIEF5
_publ_author_name
;
Filinchuk, Y.;Richter, B.;Jensen, T.R.;Dmitriev, V.;Chernyshov, 
D.;Hagemann, H.
;
_cell_length_a                     7.6325(4)
_cell_length_b                     13.8411(8)
_cell_length_c                     12.4290(8)
_cell_angle_alpha                  90
_cell_angle_beta                   103.833(3)
_cell_angle_gamma                  90
_cell_volume                       1274.94
_cell_formula_units_Z              8
_symmetry_space_group_name_H-M     'C 1 c 1'
_symmetry_Int_Tables_number        9
_refine_ls_R_factor_all            .063
loop_
_symmetry_equiv_pos_site_id
_symmetry_equiv_pos_as_xyz
  1	'x, -y, z+.5'
  2	'x, y, z'
  3	'x+.5, -y+.5, z+.5'
  4	'x+.5, y+.5, z'
loop_
_atom_type_symbol
_atom_type_oxidation_number
B3+	3
C4+	4
H1-	-1
Mg2+	2
S2-	-2
loop_
_atom_site_label
_atom_site_type_symbol
_atom_site_symmetry_multiplicity
_atom_site_Wyckoff_symbol
_atom_site_fract_x
_atom_site_fract_y
_atom_site_fract_z
_atom_site_occupancy
_atom_site_attached_hydrogens
Mg1 Mg2+ 4 a 0.4764(12) 0.0884(5) 0.5521(7) 1. 0 
Mg2 Mg2+ 4 a 0.0392(12) 0.7344(4) 0.2017(8) 1. 0 
S1 S2- 4 a 0.1925(10) 0.0071(4) 0.4141(7) 1. 0 
C1 C4+ 4 a 0.0416(12) 0.1022(6) 0.3481(9) 1. 0 
C2 C4+ 4 a 0.0552(12) -0.0501(7) 0.4952(8) 1. 0 
H1 H1- 4 a 0.0118(12) 0.1444(6) 0.4015(9) 1. 0 
H2 H1- 4 a -0.0647(12) 0.0722(6) 0.3040(9) 1. 0 
H3 H1- 4 a 0.1040(12) 0.1367(6) 0.3009(9) 1. 0 
H4 H1- 4 a -0.0181(12) -0.0067(7) 0.5265(8) 1. 0 
H5 H1- 4 a 0.1407(12) -0.0805(7) 0.5546(8) 1. 0 
H6 H1- 4 a -0.0202(12) -0.0973(7) 0.4487(8) 1. 0 
B1 B3+ 4 a 0.5359(6) 0.1602(3) 0.3798(4) 1. 0 
H7 H1- 4 a 0.588(10) 0.086(3) 0.413(5) 1. 0 
H8 H1- 4 a 0.483(11) 0.203(3) 0.444(4) 1. 0 
H9 H1- 4 a 0.651(6) 0.203(6) 0.359(4) 1. 0 
H10 H1- 4 a 0.421(7) 0.151(7) 0.303(3) 1. 0 
B2 B3+ 4 a 0.7689(6) 0.8410(3) 0.1741(4) 1. 0 
H11 H1- 4 a 0.894(6) 0.851(5) 0.244(5) 1. 0 
H12 H1- 4 a 0.644(5) 0.850(6) 0.209(4) 1. 0 
H13 H1- 4 a 0.767(6) 0.898(5) 0.107(6) 1. 0 
H14 H1- 4 a 0.768(7) 0.766(3) 0.137(7) 1. 0 
B3 B3+ 4 a 0.5565(6) 0.0860(3) 0.1063(4) 1. 0 
H15 H1- 4 a 0.604(10) 0.046(3) 0.038(5) 1. 0 
H16 H1- 4 a 0.463(10) 0.147(3) 0.066(4) 1. 0 
H17 H1- 4 a 0.481(10) 0.035(3) 0.151(5) 1. 0 
H18 H1- 4 a 0.680(5) 0.115(4) 0.168(6) 1. 0 
B4 B3+ 4 a 0.2731(6) 0.8330(3) 0.1500(3) 1. 0 
H19 H1- 4 a 0.284(8) 0.801(7) 0.236(3) 1. 0 
H20 H1- 4 a 0.305(10) 0.9134(14) 0.160(6) 1. 0 
H21 H1- 4 a 0.372(8) 0.794(3) 0.110(6) 1. 0 
H22 H1- 4 a 0.132(4) 0.823(6) 0.095(4) 1. 0 

#End of data_262079-ICSD


