data_171262-ICSD
#?2014 by Fachinformationszentrum Karlsruhe, and the U.S. Secretary of 
#Commerce on behalf of the United States.  All rights reserved.
_database_code_ICSD                171262
_audit_creation_date               2006/10/01
_chemical_name_systematic
;
Dipotassium Nickel Mercury Hexacyanide Dihydrate
;
_chemical_formula_structural       'K2 Ni Hg (C N)6 (H2 O)2'
_chemical_formula_sum              'C6 H4 Hg1 K2 N6 Ni1 O2'
_publ_section_title
;
Metal-metal bond or isolated metal centers? Interaction of Hg (C N)2 
with square planar transition metal cyanides
;
loop_
_citation_id
_citation_journal_abbrev
_citation_year
_citation_journal_volume
_citation_journal_issue
_citation_page_first
_citation_page_last
_citation_journal_id_ASTM
primary 'Inorganic Chemistry' 2005 44 26 9643 9651 INOCAJ
_publ_author_name
;
Joszai, R.;Beszeda, I.;Benyei, C.;Fischer, A.;Kovacs, M.;Maliarik, 
M.;Nagy, P.;Shchukarev, A.;Toth, I.
;
_cell_length_a                     18.971(3)
_cell_length_b                     4.0243(10)
_cell_length_c                     18.240(3)
_cell_angle_alpha                  90
_cell_angle_beta                   94.13(2)
_cell_angle_gamma                  90
_cell_volume                       1388.92
_cell_formula_units_Z              4
_symmetry_space_group_name_H-M     'C 1 2/c 1'
_symmetry_Int_Tables_number        15
_refine_ls_R_factor_all            .0515
loop_
_symmetry_equiv_pos_site_id
_symmetry_equiv_pos_as_xyz
  1	'x, -y, z+.5'
  2	'-x, -y, -z'
  3	'-x, y, -z+.5'
  4	'x, y, z'
  5	'x+.5, -y+.5, z+.5'
  6	'-x+.5, -y+.5, -z'
  7	'-x+.5, y+.5, -z+.5'
  8	'x+.5, y+.5, z'
loop_
_atom_type_symbol
_atom_type_oxidation_number
C2+	2
H1+	1
Hg2+	2
K1+	1
N3-	-3
Ni2+	2
O2-	-2
loop_
_atom_site_label
_atom_site_type_symbol
_atom_site_symmetry_multiplicity
_atom_site_Wyckoff_symbol
_atom_site_fract_x
_atom_site_fract_y
_atom_site_fract_z
_atom_site_occupancy
_atom_site_attached_hydrogens
_atom_site_U_iso_or_equiv
C1 C2+ 8 f 1.1042(8) 0.127(4) 0.2423(9) 1 0 0.030(4) 
C2 C2+ 8 f 1.0089(7) -0.235(4) 0.4132(8) 1 0 0.017(3) 
C3 C2+ 8 f 1.0963(7) -0.059(4) 0.5256(7) 1 0 0.021(3) 
N1 N3- 8 f 1.1674(7) 0.120(3) 0.2336(8) 1 0 0.031(3) 
N2 N3- 8 f 1.0168(8) -0.373(3) 0.3596(7) 1 0 0.027(3) 
N3 N3- 8 f 1.1550(8) 0.094(5) 0.0418(8) 1 0 0.042(4) 
O1 O2- 8 f 1.3174(6) 1.090(4) 0.1061(7) 1 0 0.040(3) 
K1 K1+ 8 f 1.22436(19) 0.5988(9) 0.1360(2) 1 0 0.0330(8) 
Ni1 Ni2+ 4 a 0 0 0.5 1 0 0.0170(6) 
Hg1 Hg2+ 4 e 0 0.17288(19) 0.25 1 0 0.0203(3) 
H1 H1+ 8 f 1.367(2) 1.06(4) 0.116(8) 1 0 0.024 
H2 H1+ 8 f 1.318(7) 1.25(3) 0.144(7) 1 0 0.024 

loop_
_atom_site_aniso_label
_atom_site_aniso_type_symbol
_atom_site_aniso_U_11
_atom_site_aniso_U_22
_atom_site_aniso_U_33
_atom_site_aniso_U_12
_atom_site_aniso_U_13
_atom_site_aniso_U_23
C1 C2+ 0.022(8) 0.043(9) 0.023(8) -0.017(6) -0.005(6) 0.013(7)
C2 C2+ 0.019(6) 0.020(6) 0.011(6) 0.003(5) -0.006(5) 0.003(5)
C3 C2+ 0.017(6) 0.030(8) 0.016(7) 0.002(6) -0.007(5) -0.012(6)
N2 N3- 0.039(7) 0.026(7) 0.015(6) 0.004(5) 0.004(5) -0.010(5)
N3 N3- 0.034(8) 0.059(10) 0.033(8) -0.005(7) 0.000(6) 0.017(8)
O1 O2- 0.020(5) 0.061(8) 0.036(7) -0.012(5) -0.001(4) 0.003(6)
K1 K1+ 0.0368(19) 0.0261(16) 0.0350(19) -0.0017(14) -0.0050(14) 0.0050(15)
Ni1 Ni2+ 0.0166(11) 0.0251(13) 0.0089(11) 0.0036(10) -0.0018(8) -0.0043(10)
Hg1 Hg2+ 0.0154(5) 0.0257(5) 0.0200(5) 0 0.0022(3) 0
#End of data_171262-ICSD


