data_2076-ICSD
#?2014 by Fachinformationszentrum Karlsruhe, and the U.S. Secretary of 
#Commerce on behalf of the United States.  All rights reserved.
_database_code_ICSD                2076
_audit_creation_date               1980/01/01
_audit_update_record               2010/02/01
_chemical_name_systematic          'Potassium Hydrogencarbonate'
_chemical_formula_structural       'K (H C O3)'
_chemical_formula_sum              'C1 H1 K1 O3'
_chemical_name_mineral             Kalicinite
_publ_section_title
;
Hydrogen-bond studies. LXXXIV. An X-ray diffraction study of the 
structures of K H C O3 and K D C O3 at 298, 219, 95 K
;
loop_
_citation_id
_citation_journal_abbrev
_citation_year
_citation_journal_volume
_citation_page_first
_citation_page_last
_citation_journal_id_ASTM
primary 'Acta Crystallographica B (24,1968-38,1982)' 1974 30 1155 1166 ACBCAR
2 'Golden Book of Phase Transitions, Wroclaw' 2002 1 1 123 GBOPT5
_publ_author_name
;
Thomas, J.O.;Tellgren, R.;Olovsson, I.
;
_cell_length_a                     15.115(2)
_cell_length_b                     5.6044(10)
_cell_length_c                     3.6609(10)
_cell_angle_alpha                  90.
_cell_angle_beta                   103.984(20)
_cell_angle_gamma                  90.
_cell_volume                       300.93
_cell_formula_units_Z              4
_symmetry_space_group_name_H-M     'P 1 21/a 1'
_symmetry_Int_Tables_number        14
_refine_ls_R_factor_all            .031
loop_
_symmetry_equiv_pos_site_id
_symmetry_equiv_pos_as_xyz
  1	'x+.5, -y+.5, z'
  2	'-x, -y, -z'
  3	'-x+.5, y+.5, -z'
  4	'x, y, z'
loop_
_atom_type_symbol
_atom_type_oxidation_number
C4+	4
H1+	1
K1+	1
O2-	-2
loop_
_atom_site_label
_atom_site_type_symbol
_atom_site_symmetry_multiplicity
_atom_site_Wyckoff_symbol
_atom_site_fract_x
_atom_site_fract_y
_atom_site_fract_z
_atom_site_occupancy
_atom_site_attached_hydrogens
_atom_site_B_iso_or_equiv
K1 K1+ 4 e 0.16595(3) 0.03487(8) 0.29497(11) 1. 0 0 
H1 H1+ 4 e 0.025(2) 0.704(6) -.437(9) 1. 0 2.5 
C1 C4+ 4 e 0.11972(14) 0.52447(32) -.14471(64) 1. 0 0 
O1 O2- 4 e 0.19339(10) 0.54594(21) 0.09602(45) 1. 0 0 
O2 O2- 4 e 0.08305(9) 0.32975(28) -.27538(37) 1. 0 0 
O3 O2- 4 e 0.07652(8) 0.73126(23) -.27632(34) 1. 0 0 

#End of data_2076-ICSD


