data_109935-ICSD
#?2014 by Fachinformationszentrum Karlsruhe, and the U.S. Secretary of 
#Commerce on behalf of the United States.  All rights reserved.
_database_code_ICSD                109935
_audit_creation_date               2008/02/01
_chemical_name_systematic
;
Diformatotrisodium Hydrogendiformate
;
_chemical_formula_structural       '(Na3 (H C O O)2) (H (H C O O)2)'
_chemical_formula_sum              'C4 H5 Na3 O8'
_publ_section_title
;
Crystal structure of bis(formato) trisodium hydrogen diformate, (Na3 
(H C O O)2) (H (H C O O)2)
;
loop_
_citation_id
_citation_journal_abbrev
_citation_year
_citation_journal_volume
_citation_page_first
_citation_page_last
_citation_journal_id_ASTM
primary 'Koordinatsionnaya Khimiya (= Coordination Chemistry (USSR))'
 1981 7 1422 1424 KOKHDC
_publ_author_name
;
Trunov, V.K.;Chubinidze, A.D.;Velikodnyi, Yu.A.;Efremov, V.A.
;
_cell_length_a                     3.532(1)
_cell_length_b                     8.437(8)
_cell_length_c                     8.503(5)
_cell_angle_alpha                  113.52(5)
_cell_angle_beta                   93.06(3)
_cell_angle_gamma                  79.47(4)
_cell_volume                       228.37
_cell_formula_units_Z              1
_symmetry_space_group_name_H-M     'P -1'
_symmetry_Int_Tables_number        2
_refine_ls_R_factor_all            .035
loop_
_symmetry_equiv_pos_site_id
_symmetry_equiv_pos_as_xyz
  1	'-x, -y, -z'
  2	'x, y, z'
loop_
_atom_type_symbol
_atom_type_oxidation_number
C2+	2
H1+	1
Na1+	1
O2-	-2
loop_
_atom_site_label
_atom_site_type_symbol
_atom_site_symmetry_multiplicity
_atom_site_Wyckoff_symbol
_atom_site_fract_x
_atom_site_fract_y
_atom_site_fract_z
_atom_site_occupancy
_atom_site_attached_hydrogens
Na1 Na1+ 1 a 0.00000 0.00000 0.00000 1. 0 
Na2 Na1+ 2 i 0.28530 0.46200 0.16690 1. 0 
C1 C2+ 2 i 0.10630 0.72770 0.62330 1. 0 
O1 O2- 2 i 0.13240 0.70900 0.75950 1. 0 
O2 O2- 2 i 0.29200 0.62590 0.48430 1. 0 
H1 H1+ 2 i -0.06900 0.83100 0.61800 1. 0 
C2 C2+ 2 i 0.37970 0.19410 0.79370 1. 0 
O3 O2- 2 i 0.44280 0.08840 0.86100 1. 0 
O4 O2- 2 i 0.29170 0.35580 0.86120 1. 0 
H2 H1+ 2 i 0.43500 0.14200 0.67400 1. 0 
H3 H1+ 1 h 0.50000 0.50000 0.50000 1. 0 

#End of data_109935-ICSD


