data_43015-ICSD
#?2014 by Fachinformationszentrum Karlsruhe, and the U.S. Secretary of 
#Commerce on behalf of the United States.  All rights reserved.
_database_code_ICSD                43015
_audit_creation_date               2000/07/15
_audit_update_record               2006/04/01
_chemical_name_systematic          'Potassium Hydrogencarbonate'
_chemical_formula_structural       'K (H C O3)'
_chemical_formula_sum              'C1 H1 K1 O3'
_chemical_name_mineral             Kalicinite
_publ_section_title
;
The structure of the (H C O3)2(2-) ion in potassium bicarbonate
;
loop_
_citation_id
_citation_journal_abbrev
_citation_year
_citation_journal_volume
_citation_page_first
_citation_page_last
_citation_journal_id_ASTM
primary 'Acta Crystallographica B (24,1968-38,1982)' 1968 24 478 480 ACBCAR
2 'Golden Book of Phase Transitions, Wroclaw' 2002 1 1 123 GBOPT5
_publ_author_name                  'Pedersen, P.'
_cell_length_a                     15.176(3)
_cell_length_b                     5.630(2)
_cell_length_c                     3.708(2)
_cell_angle_alpha                  90.
_cell_angle_beta                   104.52(8)
_cell_angle_gamma                  90.
_cell_volume                       306.7
_cell_formula_units_Z              4
_symmetry_space_group_name_H-M     'P 1 21/a 1'
_symmetry_Int_Tables_number        14
loop_
_symmetry_equiv_pos_site_id
_symmetry_equiv_pos_as_xyz
  1	'x+.5, -y+.5, z'
  2	'-x, -y, -z'
  3	'-x+.5, y+.5, -z'
  4	'x, y, z'
loop_
_atom_type_symbol
_atom_type_oxidation_number
C4+	4
H1+	1
K1+	1
O2-	-2
loop_
_atom_site_label
_atom_site_type_symbol
_atom_site_symmetry_multiplicity
_atom_site_Wyckoff_symbol
_atom_site_fract_x
_atom_site_fract_y
_atom_site_fract_z
_atom_site_occupancy
_atom_site_attached_hydrogens
K1 K1+ 4 e 0.167 0.025 0.3 1. 0 
C1 C4+ 4 e 0.119 0.517 -.16 1. 0 
O1 O2- 4 e 0.194 0.53 0.09 1. 0 
O2 O2- 4 e 0.082 0.321 -.285 1. 0 
O3 O2- 4 e 0.076 0.719 -.285 1. 0 
H1 H1+ 4 e 0.013 0.687 -.412 1. 0 

#End of data_43015-ICSD


