data_35191-ICSD
#?2014 by Fachinformationszentrum Karlsruhe, and the U.S. Secretary of 
#Commerce on behalf of the United States.  All rights reserved.
_database_code_ICSD                35191
_audit_creation_date               1982/12/31
_audit_update_record               1999/11/30
_chemical_name_systematic
;
Sodium Hydrogen Bis(carbonate) Dihydrate
;
_chemical_formula_structural       'Na3 H (C O3)2 (H2 O)2'
_chemical_formula_sum              'C2 H5 Na3 O8'
_chemical_name_mineral             Trona
_publ_section_title
;
Neutron diffraction study of sodium sesquicarbonate dihydrate
;
loop_
_citation_id
_citation_journal_abbrev
_citation_year
_citation_journal_volume
_citation_page_first
_citation_page_last
_citation_journal_id_ASTM
primary 'Acta Crystallographica B (24,1968-38,1982)' 1982 38 2874 2876 ACBCAR
_publ_author_name                  'Choi, C.S.;Mighell, A.D.'
_cell_length_a                     20.360(20)
_cell_length_b                     3.48(1)
_cell_length_c                     10.29(1)
_cell_angle_alpha                  90.
_cell_angle_beta                   106.48(1)
_cell_angle_gamma                  90.
_cell_volume                       699.12
_cell_formula_units_Z              4
_symmetry_space_group_name_H-M     'C 1 2/c 1'
_symmetry_Int_Tables_number        15
_refine_ls_R_factor_all            .04
loop_
_symmetry_equiv_pos_site_id
_symmetry_equiv_pos_as_xyz
  1	'x, -y, z+.5'
  2	'-x, -y, -z'
  3	'-x, y, -z+.5'
  4	'x, y, z'
  5	'x+.5, -y+.5, z+.5'
  6	'-x+.5, -y+.5, -z'
  7	'-x+.5, y+.5, -z+.5'
  8	'x+.5, y+.5, z'
loop_
_atom_type_symbol
_atom_type_oxidation_number
C4+	4
H1+	1
Na1+	1
O2-	-2
loop_
_atom_site_label
_atom_site_type_symbol
_atom_site_symmetry_multiplicity
_atom_site_Wyckoff_symbol
_atom_site_fract_x
_atom_site_fract_y
_atom_site_fract_z
_atom_site_occupancy
_atom_site_attached_hydrogens
Na1 Na1+ 4 e 0 0.74786(57) 0.25 1. 0 
Na2 Na1+ 8 f 0.15059(7) 0.16359(44) 0.42612(22) 1. 0 
C1 C4+ 8 f 0.09303(3) 0.26524(19) 0.10317(9) 1. 0 
O1 O2- 8 f 0.15103(4) 0.39845(28) 0.10200(12) 1. 0 
O2 O2- 8 f 0.05433(4) 0.12980(28) 0.98823(12) 1. 0 
O3 O2- 8 f 0.07258(4) 0.25364(23) 0.20797(11) 1. 0 
O4 O2- 8 f 0.21207(5) 0.66563(31) 0.35376(14) 1. 0 
H1 H1+ 8 f 0.19149(9) 0.59393(54) 0.25966(27) 1. 0 
H2 H1+ 8 f 0.25913(8) 0.73060(57) 0.36351(28) 1. 0 
H3 H1+ 4 a 0 0 0 1. 0 

#End of data_35191-ICSD


