data_401834-ICSD
#?2014 by Fachinformationszentrum Karlsruhe, and the U.S. Secretary of 
#Commerce on behalf of the United States.  All rights reserved.
_database_code_ICSD                401834
_audit_creation_date               1996/04/22
_chemical_name_systematic
;
Sodium Dirubidium Mue-hydrogenbis(carbonato)-
bis(aquacarbonatozincate)
;
_chemical_formula_structural
;
Na Rb2 ((Zn (H2 O) (C O3))2 (H (C O3)2))
;
_chemical_formula_sum              'C4 H5 Na1 O14 Rb2 Zn2'
_publ_section_title
;
Komplexe Alkalimetall-carbonat-hydrogencarbonate mit fuenffach 
koordiniertem Zink: Na A2 (Zn2 (H (C O3)2) (C O3)2 (H2 O)2) mit A= K, 
Rb
;
loop_
_citation_id
_citation_journal_abbrev
_citation_year
_citation_journal_volume
_citation_page_first
_citation_page_last
_citation_journal_id_ASTM
primary 'Zeitschrift fuer Naturforschung, B: Chemical Sciences'
 1995 50 1185 1194 ZNBSEN
_publ_author_name                  'Zheng, Y.-Q.;Adam, A.'
_cell_length_a                     10.682(2)
_cell_length_b                     11.316(2)
_cell_length_c                     5.186(1)
_cell_angle_alpha                  90.
_cell_angle_beta                   92.07(1)
_cell_angle_gamma                  90.
_cell_volume                       626.46
_cell_formula_units_Z              2
_symmetry_space_group_name_H-M     'P 1 21/n 1'
_symmetry_Int_Tables_number        14
_refine_ls_R_factor_all            .05
loop_
_symmetry_equiv_pos_site_id
_symmetry_equiv_pos_as_xyz
  1	'-x+.5, y+.5, -z+.5'
  2	'-x, -y, -z'
  3	'x+.5, -y+.5, z+.5'
  4	'x, y, z'
loop_
_atom_type_symbol
_atom_type_oxidation_number
C4+	4
H1+	1
Na1+	1
O2-	-2
Rb1+	1
Zn2+	2
loop_
_atom_site_label
_atom_site_type_symbol
_atom_site_symmetry_multiplicity
_atom_site_Wyckoff_symbol
_atom_site_fract_x
_atom_site_fract_y
_atom_site_fract_z
_atom_site_occupancy
_atom_site_attached_hydrogens
_atom_site_U_iso_or_equiv
Zn1 Zn2+ 4 e 0.2043(1) 0.3974(1) 0.5326(1) 1. 0 0 
Na1 Na1+ 2 c 0 0.5 0 1. 0 0 
Rb1 Rb1+ 4 e 0.0749(1) 0.1657(1) 0.0294(1) 1. 0 0 
C1 C4+ 4 e 0.3184(5) 0.4272(4) 0.0294(9) 1. 0 0 
C2 C4+ 4 e 0.4359(5) 0.1237(4) 0.0013(9) 1. 0 0 
O1 O2- 4 e 0.2175(3) 0.3867(3) 0.9209(6) 1. 0 0 
O2 O2- 4 e 0.3327(3) 0.4379(3) 0.2732(6) 1. 0 0 
O3 O2- 4 e 0.4086(3) 0.4578(3) 0.8801(6) 1. 0 0 
O4 O2- 4 e 0.0536(3) 0.6622(4) 0.2677(6) 1. 0 0 
O5 O2- 4 e 0.0350(3) 0.3825(3) 0.3629(6) 1. 0 0 
O6 O2- 4 e 0.1693(3) 0.5878(3) 0.5976(6) 1. 0 0 
O7 O2- 4 e 0.2497(3) 0.2171(3) 0.4952(6) 1. 0 0 
H1 H1+ 2 b 0.5 0.5 0 1. 0 0.0094(39) 
H2 H1+ 4 e 0.313(6) 0.214(5) 0.41(1) 1. 0 0.0058(20) 
H3 H1+ 4 e 0.268(3) 0.172(6) 0.638(10) 1. 0 0.0085(24) 

loop_
_atom_site_aniso_label
_atom_site_aniso_type_symbol
_atom_site_aniso_U_11
_atom_site_aniso_U_22
_atom_site_aniso_U_33
_atom_site_aniso_U_12
_atom_site_aniso_U_13
_atom_site_aniso_U_23
Zn1 Zn2+ 0.0111(3) 0.0198(3) 0.0112(3) -.0006(3) 0.0009(2) -.0007(3)
Na1 Na1+ 0.0397(21) 0.0208(17) 0.0109(13) -.0029(16) -.0068(13) 0.0005(12)
Rb1 Rb1+ 0.0156(3) 0.0176(2) 0.0210(2) -.0006(3) 0.0005(2) -.0028(2)
C1 C4+ 0.0100(24) 0.0118(25) 0.0145(23) 0.0019(20) -.0004(19) -.0006(18)
C2 C4+ 0.0150(27) 0.0109(23) 0.0178(23) -.0009(22) 0.001(2) -.0078(20)
O1 O2- 0.0148(18) 0.025(2) 0.0104(15) 0.0078(17) -.0015(13) 0.0003(15)
O2 O2- 0.0112(17) 0.0245(20) 0.0079(15) 0.0026(15) 0.0012(13) 0.0016(14)
O3 O2- 0.0126(19) 0.0317(16) 0.0131(16) 0.0059(17) 0.0045(14) 0.0000(15)
O4 O2- 0.0235(20) 0.0272(21) 0.0114(15) -.0033(19) -.0001(14) 0.0063(16)
O5 O2- 0.0191(20) 0.0214(19) 0.0165(17) -.0079(17) 0.0037(14) -.0059(15)
O6 O2- 0.0138(18) 0.0220(22) 0.0196(17) 0.0020(17) -.0065(14) -.0060(15)
O7 O2- 0.0098(17) 0.0198(20) 0.0141(15) -.0006(15) 0.0037(13) 0.0014(15)
#End of data_401834-ICSD


