data_261773-ICSD
#?2014 by Fachinformationszentrum Karlsruhe, and the U.S. Secretary of 
#Commerce on behalf of the United States.  All rights reserved.
_database_code_ICSD                261773
_audit_creation_date               2012/02/01
_audit_update_record               2012/08/01
_chemical_name_systematic
;
Silver Dysprosium Oxalate Sulfate(VI) Hydrate
;
_chemical_formula_structural       'Ag Dy (C2 O4) (S O4) (H2 O)'
_chemical_formula_sum              'C2 H2 Ag1 Dy1 O9 S1'
_publ_section_title
;
Organic-inorganic hybrid lanthanide-silver heterometallic 
coordination frameworks constructed from oxalate and sulfate anion: 
syntheses, structures, and photoluminescent properties
;
loop_
_citation_id
_citation_journal_abbrev
_citation_year
_citation_journal_volume
_citation_journal_issue
_citation_page_first
_citation_page_last
_citation_journal_id_ASTM
primary 'Zeitschrift fuer Anorganische und Allgemeine Chemie (1950) (DE)'
 2011 637 6 741 747 ZAACAB
_publ_author_name
;
Xiao Xueying;Wei Yongqin;Zheng Wenxu;Wu Kechen
;
_cell_length_a                     13.683(7)
_cell_length_b                     6.881(3)
_cell_length_c                     9.080(4)
_cell_angle_alpha                  90.00
_cell_angle_beta                   116.731(7)
_cell_angle_gamma                  90.00
_cell_volume                       763.54
_cell_formula_units_Z              4
_symmetry_space_group_name_H-M     'C 1 2/m 1'
_symmetry_Int_Tables_number        12
_refine_ls_R_factor_all            .0251
loop_
_symmetry_equiv_pos_site_id
_symmetry_equiv_pos_as_xyz
  1	'-x, y, -z'
  2	'-x, -y, -z'
  3	'x, -y, z'
  4	'x, y, z'
  5	'-x+.5, y+.5, -z'
  6	'-x+.5, -y+.5, -z'
  7	'x+.5, -y+.5, z'
  8	'x+.5, y+.5, z'
loop_
_atom_type_symbol
_atom_type_oxidation_number
Ag1+	1
C3+	3
Dy3+	3
H1+	1
O2-	-2
S6+	6
loop_
_atom_site_label
_atom_site_type_symbol
_atom_site_symmetry_multiplicity
_atom_site_Wyckoff_symbol
_atom_site_fract_x
_atom_site_fract_y
_atom_site_fract_z
_atom_site_occupancy
_atom_site_attached_hydrogens
_atom_site_U_iso_or_equiv
Dy1 Dy3+ 4 i 0.24452(2) 0.0000 0.26490(4) 1 0 0.01120(16) 
Ag1 Ag1+ 4 i 0.08430(6) 0.0000 -0.32498(8) 1 0 0.02385(19) 
S1 S6+ 4 i 0.32893(14) 0.0000 0.7047(2) 1 0 0.0119(4) 
O1 O2- 4 i 0.1179(4) 0.0000 -0.0262(6) 1 0 0.0201(12) 
O2 O2- 4 i -0.0561(4) 0.0000 -0.2151(6) 1 0 0.0190(12) 
O3 O2- 8 j 0.4111(3) 0.1909(5) 0.4112(4) 1 0 0.0167(8) 
O4 O2- 4 i 0.2590(5) 0.0000 0.5255(6) 1 0 0.0214(12) 
O5 O2- 8 j 0.3001(3) 0.1713(5) 0.7760(5) 1 0 0.0209(8) 
O6 O2- 4 i 0.4428(5) 0.0000 0.7431(8) 1 0 0.0286(14) 
C1 C3+ 4 i 0.0177(6) 0.0000 -0.0699(9) 1 0 0.0149(14) 
C2 C3+ 4 h 0.5000 0.1120(10) 0.5000 1 0 0.0126(13) 
O7 O2- 4 i 0.3358(5) 0.0000 0.1010(7) 1 0 0.0364(17) 
H1 H1+ 4 i 0.3196 0.0000 -0.0011 1 0 0.055 
H2 H1+ 4 i 0.4052 0.0000 0.1547 1 0 0.055 

loop_
_atom_site_aniso_label
_atom_site_aniso_type_symbol
_atom_site_aniso_U_11
_atom_site_aniso_U_22
_atom_site_aniso_U_33
_atom_site_aniso_U_12
_atom_site_aniso_U_13
_atom_site_aniso_U_23
Dy1 Dy3+ 0.0085(2) 0.0130(2) 0.0110(2) 0.000 0.00344(14) 0.000
Ag1 Ag1+ 0.0306(4) 0.0174(3) 0.0288(4) 0.000 0.0180(3) 0.000
S1 S6+ 0.0102(8) 0.0139(8) 0.0119(8) 0.000 0.0052(6) 0.000
O1 O2- 0.011(2) 0.036(3) 0.013(2) 0.000 0.006(2) 0.000
O2 O2- 0.010(2) 0.031(3) 0.014(3) 0.000 0.004(2) 0.000
O3 O2- 0.0133(18) 0.0136(17) 0.0215(19) 0.0027(13) 0.0064(16) 0.0029(15)
O4 O2- 0.014(2) 0.039(3) 0.010(2) 0.000 0.005(2) 0.000
O5 O2- 0.021(2) 0.017(2) 0.0202(18) 0.0058(15) 0.0053(16) 0.0000(15)
O6 O2- 0.011(3) 0.041(4) 0.026(3) 0.000 0.002(2) 0.000
C1 C3+ 0.012(3) 0.016(3) 0.016(3) 0.000 0.006(3) 0.000
C2 C3+ 0.014(3) 0.014(3) 0.014(3) 0.000 0.010(3) 0.000
O7 O2- 0.014(3) 0.082(5) 0.015(3) 0.000 0.008(2) 0.000
#End of data_261773-ICSD


