data_246782-ICSD
#?2014 by Fachinformationszentrum Karlsruhe, and the U.S. Secretary of 
#Commerce on behalf of the United States.  All rights reserved.
_database_code_ICSD                246782
_audit_creation_date               2010/02/01
_chemical_name_systematic          'Bis(potassium Oxalate) Monohydrate'
_chemical_formula_structural       '(C O O K)2 (H2 O)'
_chemical_formula_sum              'C2 H2 K2 O5'
_publ_section_title
;
Refinement of the crystal and molecular structure of potassium 
oxalate monohydrate
;
loop_
_citation_id
_citation_journal_abbrev
_citation_year
_citation_journal_volume
_citation_page_first
_citation_page_last
_citation_journal_id_ASTM
primary 'Acta Crystallographica B (24,1968-38,1982)' 1969 25 469 477 ACBCAR
_publ_author_name                  'Hodgson, D.J.;Ibers, J.A.'
_cell_length_a                     9.222(3)
_cell_length_b                     6.197(2)
_cell_length_c                     10.690(5)
_cell_angle_alpha                  90
_cell_angle_beta                   110.70(3)
_cell_angle_gamma                  90
_cell_volume                       571.48
_cell_formula_units_Z              4
_symmetry_space_group_name_H-M     'C 1 2/c 1'
_symmetry_Int_Tables_number        15
_refine_ls_R_factor_all            .039
loop_
_symmetry_equiv_pos_site_id
_symmetry_equiv_pos_as_xyz
  1	'x, -y, z+.5'
  2	'-x, -y, -z'
  3	'-x, y, -z+.5'
  4	'x, y, z'
  5	'x+.5, -y+.5, z+.5'
  6	'-x+.5, -y+.5, -z'
  7	'-x+.5, y+.5, -z+.5'
  8	'x+.5, y+.5, z'
loop_
_atom_type_symbol
_atom_type_oxidation_number
C3+	3
H1+	1
K1+	1
O2-	-2
loop_
_atom_site_label
_atom_site_type_symbol
_atom_site_symmetry_multiplicity
_atom_site_Wyckoff_symbol
_atom_site_fract_x
_atom_site_fract_y
_atom_site_fract_z
_atom_site_occupancy
_atom_site_attached_hydrogens
K1 K1+ 8 f 0.13179(3) 0.83039(5) 0.13194(3) 1. 0 
O1 O2- 8 f 0.1258(1) 0.2691(2) 0.0913(1) 1. 0 
O2 O2- 8 f 0.3196(1) 0.4869(2) 0.0924(1) 1. 0 
O3 O2- 4 e 0 0.4974(3) 0.25 1. 0 
C1 C3+ 8 f 0.2347(1) 0.3257(2) 0.0532(1) 1. 0 
H1 H1+ 8 f 0.022(4) 0.420(4) 0.199(3) 1. 0 

loop_
_atom_site_aniso_label
_atom_site_aniso_type_symbol
_atom_site_aniso_U_11
_atom_site_aniso_U_22
_atom_site_aniso_U_33
_atom_site_aniso_U_12
_atom_site_aniso_U_13
_atom_site_aniso_U_23
K1 K1+ 0.00701(4) 0.01331(8) 0.00427(3) -0.00010(4) 0.00181(3) 0.00106(3)
O1 O2- 0.00810(10) 0.01710(30) 0.00620(10) -0.00190(20) 0.00470(10) 
-0.00170(10)
O2 O2- 0.00900(10) 0.01310(20) 0.00580(10) -0.00260(10) 0.00320(10) 
-0.00230(10)
O3 O2- 0.01960(40) 0.01270(40) 0.00940(20) 0.00000 0.00980(30) 0.00000
C1 C3+ 0.00590(10) 0.01080(20) 0.00336(9) 0.00030(10) 0.00192(9) 
0.00010(10)
H1 H1+ 0.02400(600) 0.01300(800) 0.01200(400) -0.0100(60) 0.00090(40) 
0.00040(50)
#End of data_246782-ICSD


