data_27566-ICSD
#?2014 by Fachinformationszentrum Karlsruhe, and the U.S. Secretary of 
#Commerce on behalf of the United States.  All rights reserved.
_database_code_ICSD                27566
_audit_creation_date               1980/01/01
_chemical_name_systematic
;
Potassium Tetracyanoplatinate Hydrate *
;
_chemical_formula_structural       'K1.75 Pt (C N)4 (H2 O)1.5'
_chemical_formula_sum              'C4 H3 K1.75 N4 O1.5 Pt1'
_publ_section_title
;
The Nature of the Pt Chain Distortion in the Partially Oxidized One-
Dimensional Complex, K1.75 Pt (C N)4 (H2 O)1.5
;
loop_
_citation_id
_citation_journal_abbrev
_citation_year
_citation_journal_volume
_citation_page_first
_citation_page_last
_citation_journal_id_ASTM
primary 'Inorganic Chemistry' 1976 15 2455 2462 INOCAJ
_publ_author_name
;
Reis, A.H.jr.;Peterson, S.W.;Washecheck, D.M.;Miller, J.S.
;
_cell_length_a                     10.323(14)
_cell_length_b                     9.285(13)
_cell_length_c                     11.865(17)
_cell_angle_alpha                  77.31(3)
_cell_angle_beta                   114.85(5)
_cell_angle_gamma                  73.84(2)
_cell_volume                       914.26
_cell_formula_units_Z              4
_symmetry_space_group_name_H-M     'P -1'
_symmetry_Int_Tables_number        2
_refine_ls_R_factor_all            .05
loop_
_symmetry_equiv_pos_site_id
_symmetry_equiv_pos_as_xyz
  1	'-x, -y, -z'
  2	'x, y, z'
loop_
_atom_type_symbol
_atom_type_oxidation_number
C2+	2
H1+	1
K1+	1
N3-	-3
O2-	-2
Pt2.25+	2.25
loop_
_atom_site_label
_atom_site_type_symbol
_atom_site_symmetry_multiplicity
_atom_site_Wyckoff_symbol
_atom_site_fract_x
_atom_site_fract_y
_atom_site_fract_z
_atom_site_occupancy
_atom_site_attached_hydrogens
Pt1 Pt2.25+ 1 a 0 0 0 1. 0 
Pt2 Pt2.25+ 2 i 0.00926(10) -.02137(8) 0.25665(9) 1. 0 
Pt3 Pt2.25+ 1 b 0 0 0.5 1. 0 
C1 C2+ 2 i 0.050(2) -.239(2) 0.054(2) 1. 0 
N1 N3- 2 i 0.087(2) -.374(2) 0.085(2) 1. 0 
C2 C2+ 2 i 0.235(2) -.062(2) 0.097(2) 1. 0 
N2 N3- 2 i 0.363(2) -.100(2) 0.148(2) 1. 0 
C3 C2+ 2 i -.237(2) 0.074(2) 0.402(2) 1. 0 
N3 N3- 2 i -.367(2) 0.116(2) 0.349(2) 1. 0 
C4 C2+ 2 i -.021(2) 0.229(2) 0.446(2) 1. 0 
N4 N3- 2 i -.027(2) 0.357(2) 0.412(2) 1. 0 
C5 C2+ 2 i -.119(2) -.152(2) 0.231(2) 1. 0 
N5 N3- 2 i -.193(2) -.222(2) 0.219(2) 1. 0 
C6 C2+ 2 i 0.134(2) 0.110(2) 0.275(2) 1. 0 
N6 N3- 2 i 0.205(2) 0.188(2) 0.282(2) 1. 0 
C7 C2+ 2 i 0.198(2) -.237(2) 0.264(2) 1. 0 
N7 N3- 2 i 0.302(2) -.361(2) 0.428(2) 1. 0 
C8 C2+ 2 i -.185(2) 0.186(2) 0.156(2) 1. 0 
N8 N3- 2 i -.299(2) 0.303(2) 0.092(2) 1. 0 
K1 K1+ 2 i 0.4003(6) 0.3955(5) 0.3294(5) 1. 0 
K2 K1+ 2 i -.2699(7) -.3864(6) 0.3924(6) 1. 0 
K3 K1+ 2 i -.1125(5) 0.5011(5) 0.1298(5) 1. 0 
K4 K1+ 1 d 0.5 0 0 1. 0 
O1 O2- 2 i -.451(2) -.481(2) 0.199(2) 1. 0 
O2 O2- 2 i -.446(2) -.170(2) 0.448(2) 1. 0 
O3 O2- 2 i 0.365(2) 0.249(2) 0.089(2) 1. 0 
H1 H1+ 2 i 0.455(28) -.377(26) 0.099(25) 1. 0 
H2 H1+ 2 i -.482(27) 0.440(26) 0.158(24) 1. 0 
H3 H1+ 2 i 0.498(31) -.200(28) 0.406(27) 1. 0 
H4 H1+ 2 i -.408(29) -.104(27) 0.462(24) 1. 0 
H5 H1+ 2 i 0.47(3) 0.229(24) 0.171(26) 1. 0 
H6 H1+ 2 i 0.348(27) 0.164(28) 0.136(24) 1. 0 

#End of data_27566-ICSD


