data_250237-ICSD
#?2014 by Fachinformationszentrum Karlsruhe, and the U.S. Secretary of 
#Commerce on behalf of the United States.  All rights reserved.
_database_code_ICSD                250237
_audit_creation_date               2005/04/01
_chemical_name_systematic
;
Dipotassium Dioxouranium Oxalate Sulfate(VI) Trihydrate
;
_chemical_formula_structural       'K2 (U O2) (C2 O4) (S O4) (H2 O)3'
_chemical_formula_sum              'C2 H6 K2 O13 S1 U1'
_publ_section_title
;
Crystal structure of K2 (U O2 (C2 O4) (S O4)) 3(H2 O)
;
loop_
_citation_id
_citation_journal_abbrev
_citation_year
_citation_journal_volume
_citation_page_first
_citation_page_last
_citation_journal_id_ASTM
primary 'Zhurnal Neorganicheskoi Khimii' 2004 49 2068 2073 ZNOKAQ
_publ_author_name
;
Artem'eva, M.Yu.;Vologzhanina, A.V.;Dolgushin, F.M.;Antipin, 
M.Yu.;Serezhkina, L.B.;Serezhkin, V.N.
;
_cell_length_a                     5.743(1)
_cell_length_b                     9.544(2)
_cell_length_c                     11.845(2)
_cell_angle_alpha                  89.49(3)
_cell_angle_beta                   84.95(3)
_cell_angle_gamma                  83.01(3)
_cell_volume                       641.91
_cell_formula_units_Z              2
_symmetry_space_group_name_H-M     'P -1'
_symmetry_Int_Tables_number        2
_refine_ls_R_factor_all            .0235
loop_
_symmetry_equiv_pos_site_id
_symmetry_equiv_pos_as_xyz
  1	'-x, -y, -z'
  2	'x, y, z'
loop_
_atom_type_symbol
_atom_type_oxidation_number
C3+	3
H1+	1
K1+	1
O2-	-2
S6+	6
U6+	6
loop_
_atom_site_label
_atom_site_type_symbol
_atom_site_symmetry_multiplicity
_atom_site_Wyckoff_symbol
_atom_site_fract_x
_atom_site_fract_y
_atom_site_fract_z
_atom_site_occupancy
_atom_site_attached_hydrogens
_atom_site_U_iso_or_equiv
U1 U6+ 2 i 0.76958(3) 0.73576(2) 0.10083(1) 1. 0 0.0159(1) 
S1 S6+ 2 i 0.7368(2) 0.7311(1) 0.4035(1) 1. 0 0.0193(2) 
O1 O2- 2 i 0.0415(7) 0.6330(4) 0.0620(4) 1. 0 0.0281(8) 
O2 O2- 2 i 0.4995(7) 0.8387(4) 0.1363(4) 1. 0 0.0327(8) 
O3 O2- 2 i 0.5783(7) 0.5196(4) 0.1368(3) 1. 0 0.0226(7) 
O4 O2- 2 i 0.8604(8) 0.8778(4) -0.0673(3) 1. 0 0.0295(8) 
O5 O2- 2 i 0.9667(7) 0.9388(4) 0.1385(3) 1. 0 0.0257(7) 
O6 O2- 2 i 0.5957(7) 0.6506(4) -0.0621(3) 1. 0 0.0256(7) 
O7 O2- 2 i 0.8356(8) 0.6878(4) 0.2829(3) 1. 0 0.0317(8) 
O8 O2- 2 i 0.9275(7) 0.6910(5) 0.4744(4) 1. 0 0.0336(9) 
O9 O2- 2 i 0.6647(8) 0.8823(4) 0.4051(4) 1. 0 0.038(1) 
O10 O2- 2 i 0.5378(8) 0.6538(5) 0.4346(4) 1. 0 0.040(1) 
O11 O2- 2 i 0.2105(8) 0.9795(5) 0.3451(4) 1. 0 0.0369(9) 
O12 O2- 2 i 0.544(1) 0.7853(5) 0.7179(5) 1. 0 0.048(1) 
O13 O2- 2 i 0.0591(9) 0.6630(5) 0.7463(4) 1. 0 0.046(1) 
C1 C3+ 2 i 0.9691(9) 0.9810(5) -0.0595(4) 1. 0 0.0205(8) 
C2 C3+ 2 i 0.4950(8) 0.4626(5) 0.0576(4) 1. 0 0.0185(8) 
K1 K1+ 2 i 0.2532(2) 0.4868(1) 0.3577(1) 1. 0 0.0327(2) 
K2 K1+ 2 i 0.2030(2) 0.8538(1) 0.5715(1) 1. 0 0.0328(2) 
H1 H1+ 2 i 0.6741 0.8434 0.7139 1. 0 0.072 
H2 H1+ 2 i 0.4676 0.7920 0.7926 1. 0 0.072 
H3 H1+ 2 i 0.1714 0.5909 0.7732 1. 0 0.068 
H4 H1+ 2 i 0.0021 0.7275 0.8095 1. 0 0.068 
H5 H1+ 2 i 0.1575 0.9803 0.2695 1. 0 0.055 
H6 H1+ 2 i 0.3819 0.9659 0.3372 1. 0 0.055 

#End of data_250237-ICSD


