data_95291-ICSD
#?2014 by Fachinformationszentrum Karlsruhe, and the U.S. Secretary of 
#Commerce on behalf of the United States.  All rights reserved.
_database_code_ICSD                95291
_audit_creation_date               2003/10/01
_chemical_name_systematic
;
Dicalcium Oxalate Dichloride Dihydrate
;
_chemical_formula_structural       'Ca2 (C2 O4) Cl2 (H2 O)2'
_chemical_formula_sum              'C2 H4 Ca2 Cl2 O6'
_chemical_name_mineral             Novgorodovaite
_publ_section_title
;
Crystal structure of novgorodovaite, Ca2 (C2 O4) Cl2 * 2(H2 O)
;
loop_
_citation_id
_citation_journal_abbrev
_citation_year
_citation_journal_volume
_citation_journal_issue
_citation_page_first
_citation_page_last
_citation_journal_id_ASTM
primary 'Doklady Akad. Nauk' 2001 381 3 353 355 DAKNEQ
_publ_author_name
;
Rastsvetaeva, R.K.;Chukanov, N.V.;Nekrasov, Yu.V.
;
_cell_length_a                     6.936(3)
_cell_length_b                     7.382(3)
_cell_length_c                     7.443(3)
_cell_angle_alpha                  90
_cell_angle_beta                   94.3(1)
_cell_angle_gamma                  90
_cell_volume                       380.02
_cell_formula_units_Z              2
_symmetry_space_group_name_H-M     'I 1 2/m 1'
_symmetry_Int_Tables_number        12
_refine_ls_R_factor_all            .029
loop_
_symmetry_equiv_pos_site_id
_symmetry_equiv_pos_as_xyz
  1	'x, -y, z'
  2	'-x, -y, -z'
  3	'-x, y, -z'
  4	'x, y, z'
  5	'x+.5, -y+.5, z+.5'
  6	'-x+.5, -y+.5, -z+.5'
  7	'-x+.5, y+.5, -z+.5'
  8	'x+.5, y+.5, z+.5'
loop_
_atom_type_symbol
_atom_type_oxidation_number
C3+	3
Ca2+	2
Cl1-	-1
H1+	1
O2-	-2
loop_
_atom_site_label
_atom_site_type_symbol
_atom_site_symmetry_multiplicity
_atom_site_Wyckoff_symbol
_atom_site_fract_x
_atom_site_fract_y
_atom_site_fract_z
_atom_site_occupancy
_atom_site_attached_hydrogens
_atom_site_B_iso_or_equiv
Ca1 Ca2+ 4 i 0.2514(1) 0 0.8641(1) 1. 0 0.92(2) 
Cl1 Cl1- 4 i 0.3585(1) 0 0.2350(1) 1. 0 1.26(2) 
C1 C3+ 4 h 0 0.1053(4) 0.5 1. 0 0.99(7) 
O1 O2- 8 j 0.1190(2) 0.1811(2) 0.6106(2) 1. 0 1.21(4) 
O2 O2- 4 g 0 0.1891(3) 0 1.000 0 1.36(6) 
H1 H1+ 8 j 0.056(4) 0.241(5) 0.081(5) 1. 0 1.(1) 

#End of data_95291-ICSD


