data_110631-ICSD
#?2014 by Fachinformationszentrum Karlsruhe, and the U.S. Secretary of 
#Commerce on behalf of the United States.  All rights reserved.
_database_code_ICSD                110631
_audit_creation_date               2008/08/01
_chemical_name_systematic
;
Tris(methylammonium) Tetrakis(phosphato(V))trialuminate
;
_chemical_formula_structural       '((C H3) N H3)3 (Al3 (P O4)4)'
_chemical_formula_sum              'C3 H18 Al3 N3 O16 P4'
_publ_section_title
;
Mu-7 : A new layered aluminophosphate [C H3 N H3]3 [Al3 P4 O16] with 
a 4x8 network characterization, structure and possible 
crystallization mechanism.
;
loop_
_citation_id
_citation_journal_abbrev
_citation_year
_citation_journal_volume
_citation_page_first
_citation_page_last
_citation_journal_id_ASTM
primary 'Chemistry of Materials' 1999 11 1728 2736 CMATEX
_publ_author_name
;
Vidal, L.;Marichal, C.;Gramlich, V.;Patarin, J.;Gabelica, Z.
;
_cell_length_a                     8.368(7)
_cell_length_b                     11.274(10)
_cell_length_c                     11.462(12)
_cell_angle_alpha                  72.40(7)
_cell_angle_beta                   89.45(8)
_cell_angle_gamma                  85.35(7)
_cell_volume                       1027.2
_cell_formula_units_Z              2
_symmetry_space_group_name_H-M     'P -1'
_symmetry_Int_Tables_number        2
_refine_ls_R_factor_all            .0372
loop_
_symmetry_equiv_pos_site_id
_symmetry_equiv_pos_as_xyz
  1	'-x, -y, -z'
  2	'x, y, z'
loop_
_atom_type_symbol
_atom_type_oxidation_number
Al3+	3
C4+	4
H1-	-1
H1+	1
N3-	-3
O2-	-2
P5+	5
loop_
_atom_site_label
_atom_site_type_symbol
_atom_site_symmetry_multiplicity
_atom_site_Wyckoff_symbol
_atom_site_fract_x
_atom_site_fract_y
_atom_site_fract_z
_atom_site_occupancy
_atom_site_attached_hydrogens
P1 P5+ 2 i 0.4766(2) 0.1934(1) 0.0197(1) 1. 0 
P2 P5+ 2 i 1.0226(2) 0.1056(1) -0.2396(1) 1. 0 
P3 P5+ 2 i 1.0216(2) 0.5283(1) -0.3139(1) 1. 0 
P4 P5+ 2 i 0.5258(2) 0.2325(1) -0.3807(1) 1. 0 
Al1 Al3+ 2 i 0.8515(2) 0.3475(2) -0.4257(2) 1. 0 
Al2 Al3+ 2 i 0.6803(2) 0.0507(2) -0.1324(2) 1. 0 
Al3 Al3+ 2 i 0.2606(2) 0.2887(2) -0.2161(2) 1. 0 
O1 O2- 2 i 0.5408(4) 0.2670(3) 0.0939(3) 1. 0 
O2 O2- 2 i 0.3897(4) 0.2783(3) -0.0964(3) 1. 0 
O3 O2- 2 i 0.5789(5) 0.1205(4) -0.2708(3) 1. 0 
O4 O2- 2 i 0.9609(5) 0.2070(3) -0.3570(3) 1. 0 
O5 O2- 2 i 0.3679(4) 0.2926(4) -0.3490(3) 1. 0 
O6 O2- 2 i 0.8821(4) 0.0715(4) -0.1521(3) 1. 0 
O7 O2- 2 i 1.1429(4) 0.1631(3) -0.1772(3) 1. 0 
O8 O2- 2 i 1.0972(5) -0.0061(3) -0.2695(4) 1. 0 
O9 O2- 2 i 1.1443(5) 0.4273(3) -0.2394(4) 1. 0 
O10 O2- 2 i 0.6496(4) 0.3291(4) -0.4016(4) 1. 0 
O11 O2- 2 i 0.8969(5) 0.4645(4) -0.3665(4) 1. 0 
O12 O2- 2 i 0.5060(4) 0.1906(4) -0.4913(3) 1. 0 
O13 O2- 2 i 0.9443(4) 0.6025(3) -0.2390(3) 1. 0 
O14 O2- 2 i 0.6124(4) 0.1144(3) -0.0198(3) 1. 0 
O15 O2- 2 i 0.3536(4) 0.1061(3) 0.0926(3) 1. 0 
O16 O2- 2 i 1.1120(5) 0.6122(4) -0.4203(3) 1. 0 
N1 N3- 2 i 0.2907(6) 0.0102(5) 0.5357(5) 1. 0 
N2 N3- 2 i 0.3901(6) 0.3494(4) 0.2683(5) 1. 0 
N3 N3- 2 i 0.8731(6) 0.2565(4) 0.1344(4) 1. 0 
C1 C4+ 2 i 0.1908(9) 0.0690(8) 0.4254(7) 1. 0 
C2 C4+ 2 i 0.4658(9) 0.4672(7) 0.2425(9) 1. 0 
C3 C4+ 2 i 0.9495(9) 0.2877(8) 0.0143(6) 1. 0 
H1 H1+ 2 i 0.8903(37) 0.1749(7) 0.1718(15) 1. 0 
H2 H1+ 2 i 0.7681(8) 0.2772(31) 0.1246(5) 1. 0 
H3 H1+ 2 i 0.9145(32) 0.2985(26) 0.1797(13) 1. 0 
H4 H1+ 2 i 0.4292(33) 0.3073(17) 0.2186(24) 1. 0 
H5 H1+ 2 i 0.2846(8) 0.3654(5) 0.2563(33) 1. 0 
H6 H1+ 2 i 0.4105(38) 0.3040(16) 0.3457(11) 1. 0 
H7 H1- 2 i 0.9288(50) 0.3754(11) -0.0267(20) 1. 0 
H8 H1- 2 i 0.9065(44) 0.2411(35) -0.0339(18) 1. 0 
H9 H1- 2 i 1.0631(12) 0.2671(44) 0.0251(7) 1. 0 
H10 H1- 2 i 0.4390(52) 0.5181(21) 0.1604(18) 1. 0 
H11 H1- 2 i 0.5801(10) 0.4501(7) 0.2512(48) 1. 0 
H12 H1- 2 i 0.4279(50) 0.5106(25) 0.2990(32) 1. 0 
H13 H1- 2 i 0.1162(39) 0.0119(18) 0.4164(25) 1. 0 
H14 H1- 2 i 0.258(1) 0.0899(41) 0.3549(9) 1. 0 
H15 H1- 2 i 0.1332(44) 0.1434(25) 0.4328(20) 1. 0 
H16 H1+ 2 i 0.3340(41) -0.0637(18) 0.5334(19) 1. 0 
H17 H1+ 2 i 0.2304(12) 0.0001(36) 0.6019(5) 1. 0 
H18 H1+ 2 i 0.3682(31) 0.0589(19) 0.5388(21) 1. 0 

#End of data_110631-ICSD


