data_425547-ICSD
#?2014 by Fachinformationszentrum Karlsruhe, and the U.S. Secretary of 
#Commerce on behalf of the United States.  All rights reserved.
_database_code_ICSD                425547
_audit_creation_date               2014/02/01
_chemical_name_systematic
;
Dicalcium Sulfate Carbonate Tetrahydrate
;
_chemical_formula_structural       'Ca2 (S O4) (C O3) (H2 O)4'
_chemical_formula_sum              'C1 H8 Ca2 O11 S1'
_chemical_name_mineral             Rapidcreekite
_publ_section_title
;
Rapidcreekite in the sulfuric acid weathering environment of Diana 
Cave, Romania
;
loop_
_citation_id
_citation_journal_abbrev
_citation_year
_citation_journal_volume
_citation_journal_issue
_citation_page_first
_citation_page_last
_citation_journal_id_ASTM
primary 'American Mineralogist' 2013 98 7 1302 1309 AMMIAY
_publ_author_name
;
Onac, B.P.;Effenberger, H.S.;Wynn, J.G.;Povara, I.
;
_cell_length_a                     15.524(2)
_cell_length_b                     19.218(3)
_cell_length_c                     6.161(1)
_cell_angle_alpha                  90.
_cell_angle_beta                   90.
_cell_angle_gamma                  90.
_cell_volume                       1838.07
_cell_formula_units_Z              8
_symmetry_space_group_name_H-M     'P c n b'
_symmetry_Int_Tables_number        60
_refine_ls_R_factor_all            .0302
loop_
_symmetry_equiv_pos_site_id
_symmetry_equiv_pos_as_xyz
  1	'x, y+.5, -z'
  2	'-x+.5, y, z+.5'
  3	'x+.5, -y+.5, z+.5'
  4	'-x, -y, -z'
  5	'-x, -y+.5, z'
  6	'x+.5, -y, -z+.5'
  7	'-x+.5, y+.5, -z+.5'
  8	'x, y, z'
loop_
_atom_type_symbol
_atom_type_oxidation_number
C4+	4
Ca2+	2
H1+	1
O2-	-2
S6+	6
loop_
_atom_site_label
_atom_site_type_symbol
_atom_site_symmetry_multiplicity
_atom_site_Wyckoff_symbol
_atom_site_fract_x
_atom_site_fract_y
_atom_site_fract_z
_atom_site_occupancy
_atom_site_attached_hydrogens
_atom_site_U_iso_or_equiv
Ca1 Ca2+ 8 d 0.334002(18) 0.289513(15) 0.20090(5) 1 0 0.01712(8) 
Ca2 Ca2+ 8 d 0.327543(18) 0.053335(15) 0.18898(5) 1 0 0.01655(8) 
S1 S6+ 8 d 0.16871(2) 0.419309(18) 0.02690(6) 1 0 0.01621(9) 
C1 C4+ 8 d 0.19103(10) 0.17345(7) 0.4337(2) 1 0 0.0165(3) 
O1 O2- 8 d 0.22452(7) 0.35836(6) 0.04875(19) 1 0 0.0250(2) 
O2 O2- 8 d 0.21343(7) 0.23291(5) 0.35720(18) 1 0 0.0204(2) 
O3 O2- 8 d 0.38966(7) 0.40374(6) 0.34196(18) 1 0 0.0239(2) 
O4 O2- 8 d 0.37085(7) 0.17133(5) 0.07484(18) 1 0 0.0191(2) 
O5 O2- 8 d 0.22870(7) 0.11704(5) 0.38274(18) 1 0 0.0243(2) 
O6 O2- 8 d 0.28117(7) 0.48285(5) 0.48411(18) 1 0 0.0228(2) 
O7 O2- 8 d 0.11778(7) 0.43255(6) 0.22415(18) 1 0 0.0242(2) 
O8 O2- 8 d 0.08933(8) 0.23878(7) 0.0107(2) 1 0 0.0274(3) 
O9 O2- 8 d 0.04803(8) 0.32244(7) 0.4660(2) 1 0 0.0296(3) 
O10 O2- 8 d 0.07520(8) 0.02078(7) 0.3958(2) 1 0 0.0252(2) 
O11 O2- 8 d 0.43354(9) 0.09068(8) 0.4675(2) 1 0 0.0288(3) 
H1 H1+ 8 d 0.0414(16) 0.2390(16) 0.033(4) 1 0 0.045(4) 
H2 H1+ 8 d 0.1182(16) 0.2440(14) 0.116(5) 1 0 0.045(4) 
H3 H1+ 8 d 0.003(2) 0.3337(14) 0.485(6) 1 0 0.045(4) 
H4 H1+ 8 d 0.0623(19) 0.3598(15) 0.402(5) 1 0 0.045(4) 
H5 H1+ 8 d 0.0372(18) 0.0193(17) 0.427(5) 1 0 0.045(4) 
H6 H1+ 8 d 0.0906(17) -0.0138(14) 0.338(5) 1 0 0.045(4) 
H7 H1+ 8 d 0.4914(19) 0.1012(15) 0.425(5) 1 0 0.045(4) 
H8 H1+ 8 d 0.437(2) 0.0917(17) 0.553(5) 1 0 0.045(4) 

loop_
_atom_site_aniso_label
_atom_site_aniso_type_symbol
_atom_site_aniso_U_11
_atom_site_aniso_U_22
_atom_site_aniso_U_33
_atom_site_aniso_U_12
_atom_site_aniso_U_13
_atom_site_aniso_U_23
Ca1 Ca2+ 0.01787(14) 0.01618(14) 0.01733(14) -0.00035(10) -0.00016(10) 
-0.00086(10)
Ca2 Ca2+ 0.01821(14) 0.01593(14) 0.01552(14) 0.00052(10) 0.00018(10) 
0.00084(10)
S1 S6+ 0.01788(16) 0.01490(16) 0.01584(16) -0.00009(11) 0.00004(12) 
-0.00090(12)
C1 C4+ 0.0175(6) 0.0180(6) 0.0140(6) -0.0001(5) -0.0007(5) 0.0000(5)
O1 O2- 0.0278(5) 0.0202(5) 0.0268(6) 0.0069(4) -0.0030(4) 0.0006(4)
O2 O2- 0.0235(5) 0.0166(5) 0.0212(5) -0.0019(4) 0.0030(4) 0.0020(4)
O3 O2- 0.0254(5) 0.0229(5) 0.0235(6) -0.0011(4) 0.0063(4) -0.0039(4)
O4 O2- 0.0193(5) 0.0193(5) 0.0187(5) -0.0009(4) -0.0034(4) 0.0004(4)
O5 O2- 0.0299(6) 0.0191(5) 0.0239(5) 0.0048(4) 0.0093(5) 0.0012(4)
O6 O2- 0.0255(5) 0.0186(5) 0.0243(6) 0.0045(4) -0.0050(4) -0.0012(4)
O7 O2- 0.0277(6) 0.0232(5) 0.0217(5) -0.0029(4) 0.0070(4) -0.0031(4)
O8 O2- 0.0269(6) 0.0318(6) 0.0235(6) -0.0040(5) 0.0000(5) 0.0007(5)
O9 O2- 0.0243(6) 0.0308(7) 0.0336(7) 0.0004(5) -0.0049(5) 0.0061(5)
O10 O2- 0.0247(6) 0.0274(6) 0.0236(6) -0.0006(5) -0.0004(5) -0.0041(5)
O11 O2- 0.0250(6) 0.0334(7) 0.0280(6) -0.0018(5) -0.0040(5) 0.0030(5)
#End of data_425547-ICSD


