data_201521-ICSD
#?2014 by Fachinformationszentrum Karlsruhe, and the U.S. Secretary of 
#Commerce on behalf of the United States.  All rights reserved.
_database_code_ICSD                201521
_audit_creation_date               1985/07/17
_audit_update_record               2008/02/01
_chemical_name_systematic
;
Sodium Potassium Carbonate Hexahydrate
;
_chemical_formula_structural       'Na K (C O3) (H2 O)6'
_chemical_formula_sum              'C1 H12 K1 Na1 O9'
_publ_section_title
;
Structure cristalline de K Na C O3 (H2 O)6
;
loop_
_citation_id
_citation_journal_abbrev
_citation_year
_citation_journal_volume
_citation_page_first
_citation_page_last
_citation_journal_id_ASTM
primary 'Revue de Chimie Minerale' 1984 21 152 158 RVCMA8
_publ_author_name
;
Bois, C.;Papin, G.;Philoche-Levisalles, M.
;
_cell_length_a                     9.530(2)
_cell_length_b                     11.700(2)
_cell_length_c                     11.335(2)
_cell_angle_alpha                  90.
_cell_angle_beta                   131.85(4)
_cell_angle_gamma                  90.
_cell_volume                       941.44
_cell_formula_units_Z              4
_symmetry_space_group_name_H-M     'P 1 21/c 1'
_symmetry_Int_Tables_number        14
_refine_ls_R_factor_all            .047
loop_
_symmetry_equiv_pos_site_id
_symmetry_equiv_pos_as_xyz
  1	'x, -y+.5, z+.5'
  2	'-x, -y, -z'
  3	'-x, y+.5, -z+.5'
  4	'x, y, z'
loop_
_atom_type_symbol
_atom_type_oxidation_number
C4+	4
H1+	1
K1+	1
Na1+	1
O2-	-2
loop_
_atom_site_label
_atom_site_type_symbol
_atom_site_symmetry_multiplicity
_atom_site_Wyckoff_symbol
_atom_site_fract_x
_atom_site_fract_y
_atom_site_fract_z
_atom_site_occupancy
_atom_site_attached_hydrogens
_atom_site_B_iso_or_equiv
K1 K1+ 4 e 0.0185(1) 0.0944(1) 0.3595(1) 1. 0 0 
Na1 Na1+ 4 e 0.1875(2) 0.0885(1) 0.0699(1) 1. 0 0 
C1 C4+ 4 e -.3757(4) 0.2489(2) 0.0538(3) 1. 0 0 
O1 O2- 4 e -.4057(3) 0.3302(2) 0.1117(2) 1. 0 0 
O2 O2- 4 e -.2136(3) 0.2381(2) 0.0964(2) 1. 0 0 
O3 O2- 4 e -.5103(3) 0.1802(2) -.0482(2) 1. 0 0 
O4 O2- 4 e 0.2779(3) 0.0615(2) 0.3255(2) 1. 0 0 
O5 O2- 4 e -.2056(3) 0.0796(2) 0.4270(3) 1. 0 0 
O6 O2- 4 e 0.3200(3) 0.2785(2) 0.1311(3) 1. 0 0 
O7 O2- 4 e 0.1287(3) -.1215(2) 0.0589(2) 1. 0 0 
O8 O2- 4 e 0.0993(3) 0.1218(2) -.1885(3) 1. 0 0 
O9 O2- 4 e 0.4649(3) 0.0271(2) 0.1292(2) 1. 0 0 
H1 H1+ 4 e 0.3596(49) 0.0916(31) 0.3958(43) 1. 0 2.3 
H2 H1+ 4 e 0.3049(49) -.0138(33) 0.3478(43) 1. 0 2.3 
H3 H1+ 4 e -.3042(51) 0.0704(31) 0.3433(46) 1. 0 2.7 
H4 H1+ 4 e -.2164(51) 0.1392(32) 0.4658(46) 1. 0 2.7 
H5 H1+ 4 e 0.3675(50) 0.2855(32) 0.2211(44) 1. 0 2.5 
H6 H1+ 4 e 0.4030(48) 0.2896(32) 0.1267(44) 1. 0 2.5 
H7 H1+ 4 e 0.1518(46) -.1562(30) 0.0082(42) 1. 0 2.1 
H8 H1+ 4 e 0.1991(48) -.1478(31) 0.1521(43) 1. 0 2.1 
H9 H1+ 4 e 0.1866(52) 0.1539(33) -.1699(45) 1. 0 2.6 
H10 H1+ 4 e 0.0121(53) 0.1639(32) -.2502(45) 1. 0 2.6 
H11 H1+ 4 e 0.4717(50) 0.0674(31) 0.0810(43) 1. 0 2. 
H12 H1+ 4 e 0.4638(49) -.0315(33) 0.1026(42) 1. 0 2. 

#End of data_201521-ICSD


