data_110642-ICSD
#?2014 by Fachinformationszentrum Karlsruhe, and the U.S. Secretary of 
#Commerce on behalf of the United States.  All rights reserved.
_database_code_ICSD                110642
_audit_creation_date               2008/08/01
_chemical_name_systematic
;
Methylammonium Hydroxotris(phosphato(V))trialuminate
;
_chemical_formula_structural       '((C H3) N H3) (Al3 (O H) (P O4)3)'
_chemical_formula_sum              'C1 H7 Al3 N1 O13 P3'
_publ_section_title
;
A three-dimensional framework aluminophosphate (C H3 N H3)+ [Al3 P3 
O13 H]-
;
loop_
_citation_id
_citation_journal_abbrev
_citation_year
_citation_journal_volume
_citation_page_first
_citation_page_last
_citation_journal_id_ASTM
primary 'Acta Crystallographica, Section C: Crystal Structure Communications'
 1983 50 1357 1540 ACSCEE
_publ_author_name
;
Chippindale, A.M.;Powell, A.V.;Jones, R.H.;Thomas, J.M.;Cheetham, 
A.K.;Huo Qisheng;Xu Ruren
;
_cell_length_a                     10.281(2)
_cell_length_b                     13.844(3)
_cell_length_c                     17.064(5)
_cell_angle_alpha                  90
_cell_angle_beta                   90
_cell_angle_gamma                  90
_cell_volume                       2428.72
_cell_formula_units_Z              8
_symmetry_space_group_name_H-M     'P c a b'
_symmetry_Int_Tables_number        61
_refine_ls_R_factor_all            .0456
loop_
_symmetry_equiv_pos_site_id
_symmetry_equiv_pos_as_xyz
  1	'x+.5, -y+.5, z'
  2	'x, y+.5, -z+.5'
  3	'-x+.5, y, z+.5'
  4	'-x, -y, -z'
  5	'-x+.5, y+.5, -z'
  6	'-x, -y+.5, z+.5'
  7	'x+.5, -y, -z+.5'
  8	'x, y, z'
loop_
_atom_type_symbol
_atom_type_oxidation_number
Al3+	3
C4+	4
H1-	-1
H1+	1
N3-	-3
O2-	-2
P5+	5
loop_
_atom_site_label
_atom_site_type_symbol
_atom_site_symmetry_multiplicity
_atom_site_Wyckoff_symbol
_atom_site_fract_x
_atom_site_fract_y
_atom_site_fract_z
_atom_site_occupancy
_atom_site_attached_hydrogens
P1 P5+ 8 c 0.3676(1) -0.74672(9) 0.20387(7) 1. 0 
P2 P5+ 8 c 0.1263(1) -0.53987(9) 0.33711(7) 1. 0 
P3 P5+ 8 c 0.3707(1) -0.43332(8) 0.58027(7) 1. 0 
Al1 Al3+ 8 c 0.3298(1) -0.5211(1) 0.19812(8) 1. 0 
Al2 Al3+ 8 c 0.3749(1) -0.4383(1) 0.39344(8) 1. 0 
Al3 Al3+ 8 c 0.1219(1) -0.7586(1) 0.30632(8) 1. 0 
O1 O2- 8 c 0.3270(3) -0.6469(2) 0.1774(2) 1. 0 
O2 O2- 8 c 0.1182(4) -0.6488(2) 0.3555(2) 1. 0 
O3 O2- 8 c 0.4036(3) -0.4818(2) 0.2892(2) 1. 0 
O4 O2- 8 c 0.3587(3) -0.8143(2) 0.1350(2) 1. 0 
O5 O2- 8 c 0.2204(3) -0.4976(3) 0.3959(2) 1. 0 
O6 O2- 8 c 0.1685(3) -0.5237(2) 0.2530(2) 1. 0 
O7 O2- 8 c 0.4667(3) -0.5167(2) 0.5845(2) 1. 0 
O8 O2- 8 c 0.4229(3) -0.3471(2) 0.6274(2) 1. 0 
O9 O2- 8 c 0.3502(3) -0.4009(2) 0.4967(2) 1. 0 
O10 O2- 8 c 0.2394(3) -0.4625(2) 0.6149(2) 1. 0 
O11 O2- 8 c 0.2779(3) -0.7807(3) 0.2703(2) 1. 0 
O12 O2- 8 c -0.0054(3) -0.4953(3) 0.3513(2) 1. 0 
O13 O2- 8 c 0.5076(3) -0.7450(3) 0.2325(2) 1. 0 
N1 N3- 8 c 0.4452(7) -0.3621(6) -0.0060(4) 1. 0 
C1 C4+ 8 c 0.396(1) -0.2614(7) -0.0152(6) 1. 0 
H1 H1+ 8 c 0.4621(7) -0.3922(6) -0.0563(4) 1. 0 
H2 H1+ 8 c 0.5282(7) -0.3595(6) 0.0245(4) 1. 0 
H3 H1+ 8 c 0.3798(7) -0.4017(6) 0.0231(4) 1. 0 
H4 H1- 8 c 0.384(1) -0.2521(7) -0.0698(6) 1. 0 
H5 H1- 8 c 0.460(1) -0.2134(7) 0.0057(6) 1. 0 
H6 H1- 8 c 0.311(1) -0.2545(7) 0.0131(6) 1. 0 
H7 H1+ 8 c 0.5019(3) -0.4704(2) 0.2862(2) 1. 0 

#End of data_110642-ICSD


