data_151320-ICSD
#?2014 by Fachinformationszentrum Karlsruhe, and the U.S. Secretary of 
#Commerce on behalf of the United States.  All rights reserved.
_database_code_ICSD                151320
_audit_creation_date               2006/10/01
_audit_update_record               2013/08/01
_chemical_name_systematic          'Sodium Formate'
_chemical_formula_structural       'Na (H C O O)'
_chemical_formula_sum              'C1 H1 Na1 O2'
_publ_section_title
;
The crystal structure of sodium formate, Na H C O2
;
loop_
_citation_id
_citation_journal_abbrev
_citation_year
_citation_journal_volume
_citation_page_first
_citation_page_last
_citation_journal_id_ASTM
primary 'Journal of the American Chemical Society' 1940 62 1011 1013 JACSAT
_publ_author_name                  'Zachariasen, W.H.'
_cell_length_a                     6.19(1)
_cell_length_b                     6.72(1)
_cell_length_c                     6.49(1)
_cell_angle_alpha                  90.
_cell_angle_beta                   121.70(17)
_cell_angle_gamma                  90.
_cell_volume                       229.69
_cell_formula_units_Z              4
_symmetry_space_group_name_H-M     'C 1 2/n 1'
_symmetry_Int_Tables_number        15
loop_
_symmetry_equiv_pos_site_id
_symmetry_equiv_pos_as_xyz
  1	'x+.5, -y, z+.5'
  2	'-x+.5, y, -z+.5'
  3	'-x, -y, -z'
  4	'x, y, z'
  5	'x, -y+.5, z+.5'
  6	'-x, y+.5, -z+.5'
  7	'-x+.5, -y+.5, -z'
  8	'x+.5, y+.5, z'
loop_
_atom_type_symbol
_atom_type_oxidation_number
C4+	4
H1-	-1
Na1+	1
O2-	-2
loop_
_atom_site_label
_atom_site_type_symbol
_atom_site_symmetry_multiplicity
_atom_site_Wyckoff_symbol
_atom_site_fract_x
_atom_site_fract_y
_atom_site_fract_z
_atom_site_occupancy
_atom_site_attached_hydrogens
Na1 Na1+ 4 e 0.250 -0.139(1) 0.250 1. 0 
C1 C4+ 4 e 0.250 0.283(2) 0.250 1. 0 
H1 H1- 4 e 0.250 0.43 0.250 1. 0 
O1 O2- 8 f 0.043(2) 0.194(2) 0.185(2) 1. 0 

#End of data_151320-ICSD


