data_110568-ICSD
#?2014 by Fachinformationszentrum Karlsruhe, and the U.S. Secretary of 
#Commerce on behalf of the United States.  All rights reserved.
_database_code_ICSD                110568
_audit_creation_date               2008/08/01
_audit_update_record               2011/02/01
_chemical_name_systematic
;
Dimethylammonium Hexaaquaaluminium Bis(sulfate(VI)) - Lt
;
_chemical_formula_structural
;
((C H3)2 N H2) (Al (H2 O)6) (S O4)2
;
_chemical_formula_sum              'C2 H20 Al1 N1 O14 S2'
_publ_section_title
;
Crystal structure of (C H3)2 N H2 Al( S O4)2 * 6(H2 O) in the low 
temperature ferroelectric phase
;
loop_
_citation_id
_citation_journal_abbrev
_citation_year
_citation_journal_volume
_citation_page_first
_citation_page_last
_citation_journal_id_ASTM
primary 'Polish Journal of Chemistry' 1994 68 1239 1243 PJCHDQ
_publ_author_name                  'Pietraszko, A.;Lukaszewicz, K.'
_cell_length_a                     6.445(1)
_cell_length_b                     10.688(2)
_cell_length_c                     11.109(2)
_cell_angle_alpha                  90
_cell_angle_beta                   99.71(3)
_cell_angle_gamma                  90
_cell_volume                       754.27
_cell_formula_units_Z              2
_symmetry_space_group_name_H-M     'P 1 n 1'
_symmetry_Int_Tables_number        7
_refine_ls_R_factor_all            .0309
loop_
_symmetry_equiv_pos_site_id
_symmetry_equiv_pos_as_xyz
  1	'x+.5, -y, z+.5'
  2	'x, y, z'
loop_
_atom_type_symbol
_atom_type_oxidation_number
Al3+	3
C4+	4
H1-	-1
H1+	1
N3-	-3
O2-	-2
S6+	6
loop_
_atom_site_label
_atom_site_type_symbol
_atom_site_symmetry_multiplicity
_atom_site_Wyckoff_symbol
_atom_site_fract_x
_atom_site_fract_y
_atom_site_fract_z
_atom_site_occupancy
_atom_site_attached_hydrogens
S1 S6+ 2 a 0.5626(2) -0.4282(1) 0.7441(1) 1. 0 
S2 S6+ 2 a -0.0609(2) 0.0650(1) -0.2303(1) 1. 0 
Al1 Al3+ 2 a 0.50000 0.2508(2) 0.0058(2) 1. 0 
O1 O2- 2 a 0.2939(5) 0.3276(3) -0.1136(3) 1. 0 
O2 O2- 2 a 0.7037(6) 0.1747(3) 0.1253(3) 1. 0 
O3 O2- 2 a 0.7247(5) 0.3185(3) -0.0619(3) 1. 0 
O4 O2- 2 a 0.2788(5) 0.1821(3) 0.0724(3) 1. 0 
O5 O2- 2 a 0.5054(5) 0.3969(3) 0.0996(3) 1. 0 
O6 O2- 2 a 0.4965(5) 0.1048(3) -0.0880(3) 1. 0 
O7 O2- 2 a 0.5524(5) -0.2906(3) 0.7219(3) 1. 0 
O8 O2- 2 a 0.6938(5) -0.4494(3) 0.8647(3) 1. 0 
O9 O2- 2 a 0.3472(5) -0.4771(3) 0.7449(3) 1. 0 
O10 O2- 2 a 0.6549(5) -0.4898(3) 0.6474(3) 1. 0 
O11 O2- 2 a -0.0462(5) 0.1994(3) -0.2031(3) 1. 0 
O12 O2- 2 a 0.1535(5) 0.0124(3) -0.2236(3) 1. 0 
O13 O2- 2 a -0.1795(6) 0.0457(3) -0.3540(3) 1. 0 
O14 O2- 2 a -0.1671(6) 0.0003(3) -0.1403(3) 1. 0 
C1 C4+ 2 a 0.3793(8) 0.2239(5) 0.5851(4) 1. 0 
C2 C4+ 2 a 0.6426(8) 0.2732(6) 0.4534(5) 1. 0 
N1 N3- 2 a 0.4232(4) 0.2379(3) 0.4593(2) 1. 0 
H1 H1- 2 a 0.241(8) 0.185(5) 0.592(6) 1. 0 
H2 H1- 2 a 0.390(9) 0.309(4) 0.618(5) 1. 0 
H3 H1- 2 a 0.482(6) 0.157(4) 0.617(4) 1. 0 
H4 H1- 2 a 0.664(9) 0.354(5) 0.489(5) 1. 0 
H5 H1- 2 a 0.718(7) 0.205(4) 0.483(4) 1. 0 
H6 H1- 2 a 0.654(8) 0.271(5) 0.370(4) 1. 0 
H7 H1+ 2 a 0.338(6) 0.295(4) 0.419(3) 1. 0 
H8 H1+ 2 a 0.374(7) 0.156(4) 0.421(4) 1. 0 
H9 H1+ 2 a 0.185(6) 0.291(5) -0.138(4) 1. 0 
H10 H1+ 2 a 0.271(10) 0.395(5) -0.153(6) 1. 0 
H11 H1+ 2 a 0.819(9) 0.207(7) 0.166(6) 1. 0 
H12 H1+ 2 a 0.679(6) 0.120(4) 0.172(3) 1. 0 
H13 H1+ 2 a 0.801(6) 0.268(4) -0.106(3) 1. 0 
H14 H1+ 2 a 0.702(12) 0.391(5) -0.082(7) 1. 0 
H15 H1+ 2 a 0.214(11) 0.209(7) 0.119(6) 1. 0 
H16 H1+ 2 a 0.274(6) 0.112(4) 0.096(4) 1. 0 
H17 H1+ 2 a 0.394(7) 0.426(5) 0.109(5) 1. 0 
H18 H1+ 2 a 0.616(7) 0.438(5) 0.150(4) 1. 0 
H19 H1+ 2 a 0.608(9) 0.069(6) -0.112(6) 1. 0 
H20 H1+ 2 a 0.394(7) 0.088(4) -0.126(4) 1. 0 

#End of data_110568-ICSD


