data_240732-ICSD
#?2014 by Fachinformationszentrum Karlsruhe, and the U.S. Secretary of 
#Commerce on behalf of the United States.  All rights reserved.
_database_code_ICSD                240732
_audit_creation_date               2007/04/01
_chemical_name_systematic
;
Dipotassium Mu-oxo-bis[aqua(oxalato-kappa2O,O')dioxomolybdate(VI)]
;
_chemical_formula_structural       'K2 (Mo2 O5 (C2 O4)2 (H2 O1)2)'
_chemical_formula_sum              'C4 H4 K2 Mo2 O15'
_publ_section_title
;
Redetermination of dipotassium mu-oxo-bis[aqua(oxalato-
kappa2O,O')dioxomolybdate(VI)] at 150 K
;
loop_
_citation_id
_citation_journal_abbrev
_citation_year
_citation_journal_volume
_citation_journal_issue
_citation_page_first
_citation_page_last
_citation_journal_id_ASTM
primary 'Acta Crystallographica, Section E. Structure Reports Online'
 2007 63 2 m376 m378 ACSEBH
_publ_author_name
;
Cunha Silva, L.;Monteiro, B.;Pillinger, M.;Goncalves, I.S.;Rocha, 
J.;Almeida Paz, F.A.
;
_cell_length_a                     7.4774(2)
_cell_length_b                     14.2242(3)
_cell_length_c                     6.57260(10)
_cell_angle_alpha                  90.00
_cell_angle_beta                   94.2840(10)
_cell_angle_gamma                  90.00
_cell_volume                       697.11
_cell_formula_units_Z              2
_symmetry_space_group_name_H-M     'P 1 21/c 1'
_symmetry_Int_Tables_number        14
_refine_ls_R_factor_all            .0204
loop_
_symmetry_equiv_pos_site_id
_symmetry_equiv_pos_as_xyz
  1	'x, -y+.5, z+.5'
  2	'-x, -y, -z'
  3	'-x, y+.5, -z+.5'
  4	'x, y, z'
loop_
_atom_type_symbol
_atom_type_oxidation_number
C3+	3
H1+	1
K1+	1
Mo6+	6
O2-	-2
loop_
_atom_site_label
_atom_site_type_symbol
_atom_site_symmetry_multiplicity
_atom_site_Wyckoff_symbol
_atom_site_fract_x
_atom_site_fract_y
_atom_site_fract_z
_atom_site_occupancy
_atom_site_attached_hydrogens
_atom_site_U_iso_or_equiv
Mo1 Mo6+ 4 e 0.39809(3) 0.107909(16) 0.87442(4) 1 0 0.00856(10) 
K1 K1+ 4 e 0.69345(10) 0.13694(5) 1.35797(11) 1 0 0.01885(16) 
O1 O2- 4 e 0.1520(3) 0.02571(14) 0.8247(3) 1 0 0.0121(4) 
O2 O2- 4 e 0.1949(3) 0.20542(14) 0.8051(3) 1 0 0.0128(4) 
O3 O2- 2 b 0.5000 0.0000 1.0000 1 0 0.0154(6) 
O4 O2- 4 e 0.5394(3) 0.19638(16) 0.9554(4) 1 0 0.0177(5) 
O5 O2- 4 e 0.4445(3) 0.08921(18) 0.6296(4) 1 0 0.0204(5) 
O6 O2- 4 e -0.1289(3) 0.03392(16) 0.6788(4) 1 0 0.0180(5) 
O7 O2- 4 e -0.0855(3) 0.22833(16) 0.6731(4) 1 0 0.0186(5) 
C1 C3+ 4 e 0.0121(4) 0.0689(2) 0.7472(4) 1 0 0.0127(5) 
C2 C3+ 4 e 0.0355(4) 0.1775(2) 0.7379(4) 1 0 0.0125(6) 
O8 O2- 4 e 0.2887(3) 0.11958(15) 1.1849(3) 1 0 0.0151(4) 
H1 H1+ 4 e 0.243(5) 0.1777(12) 1.228(6) 1 0 0.023 
H2 H1+ 4 e 0.224(5) 0.0696(15) 1.240(6) 1 0 0.023 

loop_
_atom_site_aniso_label
_atom_site_aniso_type_symbol
_atom_site_aniso_U_11
_atom_site_aniso_U_22
_atom_site_aniso_U_33
_atom_site_aniso_U_12
_atom_site_aniso_U_13
_atom_site_aniso_U_23
Mo1 Mo6+ 0.00753(14) 0.00776(14) 0.01019(14) 0.00028(8) -0.00069(9) 
0.00121(8)
K1 K1+ 0.0194(3) 0.0179(3) 0.0190(3) 0.0016(3) -0.0002(3) -0.0001(3)
O1 O2- 0.0115(10) 0.0093(9) 0.0152(10) -0.0002(8) -0.0004(8) 0.0010(8)
O2 O2- 0.0116(10) 0.0081(9) 0.0183(10) 0.0005(8) -0.0013(8) 0.0026(8)
O3 O2- 0.0114(14) 0.0122(14) 0.0222(16) 0.0028(11) -0.0011(12) 0.0042(12)
O4 O2- 0.0149(11) 0.0144(10) 0.0231(11) -0.0041(8) -0.0045(9) 0.0028(9)
O5 O2- 0.0186(11) 0.0282(12) 0.0149(11) -0.0001(10) 0.0043(9) 0.0032(10)
O6 O2- 0.0134(10) 0.0171(11) 0.0225(11) -0.0048(9) -0.0048(9) 0.0063(9)
O7 O2- 0.0158(11) 0.0160(11) 0.0232(11) 0.0042(9) -0.0040(9) 0.0033(9)
C1 C3+ 0.0123(13) 0.0131(13) 0.0124(13) -0.0003(11) 0.0002(10) 0.0016(11)
C2 C3+ 0.0119(13) 0.0124(13) 0.0129(13) 0.0016(11) -0.0002(10) -0.0003(10)
O8 O2- 0.0232(12) 0.0087(9) 0.0140(10) 0.0008(8) 0.0051(9) -0.0008(8)
#End of data_240732-ICSD


