data_249197-ICSD
#?2014 by Fachinformationszentrum Karlsruhe, and the U.S. Secretary of 
#Commerce on behalf of the United States.  All rights reserved.
_database_code_ICSD                249197
_audit_creation_date               2008/02/01
_chemical_name_systematic          'Calcium Diformate - Beta'
_chemical_formula_structural       'Ca (O2 C H)2'
_chemical_formula_sum              'C2 H2 Ca1 O4'
_publ_section_title
;
Synthesis, structural characterization, gas sorption and guest-
exchange studies of the lightweight, porous metal-organic framework 
alpha-[Mg3 (O2 C H)6]]
;
loop_
_citation_id
_citation_journal_abbrev
_citation_year
_citation_journal_volume
_citation_journal_issue
_citation_page_first
_citation_page_last
_citation_journal_id_ASTM
primary 'Inorganic Chemistry Communications' 2006 45 14 5521 5528 ICCOFP
_publ_author_name
;
Rood, J.A.;Noll, B.C.;Henderson, K.W.
;
_cell_length_a                     6.8015(2)
_cell_length_b                     6.8015(2)
_cell_length_c                     9.2196(6)
_cell_angle_alpha                  90.00
_cell_angle_beta                   90.00
_cell_angle_gamma                  90.00
_cell_volume                       426.5
_cell_formula_units_Z              4
_symmetry_space_group_name_H-M     'P 43 21 2'
_symmetry_Int_Tables_number        96
_refine_ls_R_factor_all            .0135
loop_
_symmetry_equiv_pos_site_id
_symmetry_equiv_pos_as_xyz
  1	'x+.5, -y+.5, -z+.25'
  2	'-x+.5, y+.5, -z+.75'
  3	'-y, -x, -z+.5'
  4	'y, x, -z'
  5	'y+.5, -x+.5, z+.25'
  6	'-y+.5, x+.5, z+.75'
  7	'-x, -y, z+.5'
  8	'x, y, z'
loop_
_atom_type_symbol
_atom_type_oxidation_number
C2+	2
Ca2+	2
H1+	1
O2-	-2
loop_
_atom_site_label
_atom_site_type_symbol
_atom_site_symmetry_multiplicity
_atom_site_Wyckoff_symbol
_atom_site_fract_x
_atom_site_fract_y
_atom_site_fract_z
_atom_site_occupancy
_atom_site_attached_hydrogens
_atom_site_U_iso_or_equiv
Ca1 Ca2+ 4 a 0.786646(16) 0.786646(16) 0.0000 1 0 0.00989(4) 
O1 O2- 8 b 0.44047(6) 0.77817(7) 0.01140(5) 1 0 0.01378(8) 
O2 O2- 8 b 0.12312(7) 0.78222(9) -0.03738(6) 1 0 0.02008(10) 
C1 C2+ 8 b 0.29757(8) 0.81292(8) -0.07150(6) 1 0 0.01164(10) 
H1 H1+ 8 b 0.3242 0.8653 -0.1650 1 0 0.014 

loop_
_atom_site_aniso_label
_atom_site_aniso_type_symbol
_atom_site_aniso_U_11
_atom_site_aniso_U_22
_atom_site_aniso_U_33
_atom_site_aniso_U_12
_atom_site_aniso_U_13
_atom_site_aniso_U_23
Ca1 Ca2+ 0.00767(4) 0.00767(4) 0.01432(7) 0.00009(4) -0.00166(3) 0.00166(3)
O1 O2- 0.01057(16) 0.01627(18) 0.01449(19) 0.00080(13) -0.00184(14) 
0.00024(19)
O2 O2- 0.00821(16) 0.0218(2) 0.0303(3) -0.00096(16) 0.00324(17) 0.0002(2)
C1 C2+ 0.00991(19) 0.0129(2) 0.01210(19) -0.00120(18) 0.00059(17) 
-0.00004(16)
#End of data_249197-ICSD


