data_240383-ICSD
#?2014 by Fachinformationszentrum Karlsruhe, and the U.S. Secretary of 
#Commerce on behalf of the United States.  All rights reserved.
_database_code_ICSD                240383
_audit_creation_date               2007/04/01
_chemical_name_systematic          'Magnesium Sulfate Trimethanolate'
_chemical_formula_structural       '(Mg (C H4 O)3 (S O4))'
_chemical_formula_sum              'C3 H12 Mg1 O7 S1'
_publ_section_title
;
Poly((trimethanolmagnesium)-mu3-sulfato)
;
loop_
_citation_id
_citation_journal_abbrev
_citation_year
_citation_journal_volume
_citation_journal_issue
_citation_page_first
_citation_page_last
_citation_journal_id_ASTM
primary 'Acta Crystallographica, Section E. Structure Reports Online'
 2006 62 11 m2883 m2885 ACSEBH
_publ_author_name                  'Horvath, U.E.I.;Raubenheimer, H.G.'
_cell_length_a                     7.9974(12)
_cell_length_b                     9.3928(15)
_cell_length_c                     12.4050(19)
_cell_angle_alpha                  90.00
_cell_angle_beta                   107.047(2)
_cell_angle_gamma                  90.00
_cell_volume                       890.9
_cell_formula_units_Z              4
_symmetry_space_group_name_H-M     'P 1 21/c 1'
_symmetry_Int_Tables_number        14
_refine_ls_R_factor_all            .0489
loop_
_symmetry_equiv_pos_site_id
_symmetry_equiv_pos_as_xyz
  1	'x, -y+.5, z+.5'
  2	'-x, -y, -z'
  3	'-x, y+.5, -z+.5'
  4	'x, y, z'
loop_
_atom_type_symbol
_atom_type_oxidation_number
C4+	4
H1-	-1
H1+	1
Mg2+	2
O2-	-2
S6+	6
loop_
_atom_site_label
_atom_site_type_symbol
_atom_site_symmetry_multiplicity
_atom_site_Wyckoff_symbol
_atom_site_fract_x
_atom_site_fract_y
_atom_site_fract_z
_atom_site_occupancy
_atom_site_attached_hydrogens
_atom_site_U_iso_or_equiv
S1 S6+ 4 e 0.95009(7) -0.14289(6) 0.36769(4) 1 0 0.00856(16) 
Mg1 Mg2+ 4 e 0.98935(10) 0.20305(8) 0.35988(6) 1 0 0.00923(19) 
O1 O2- 4 e 0.7630(2) -0.11876(17) 0.35694(13) 1 0 0.0120(3) 
C1 C4+ 4 e 0.6314(3) 0.1814(3) 0.1746(2) 1 0 0.0219(5) 
H1 H1- 4 e 0.5085 0.1538 0.1597 1 0 0.033 
H2 H1- 4 e 0.6854 0.1236 0.1281 1 0 0.033 
H3 H1- 4 e 0.6383 0.2822 0.1561 1 0 0.033 
O2 O2- 4 e 0.9685(2) -0.25887(17) 0.29220(13) 1 0 0.0115(3) 
C2 C4+ 4 e 1.3930(3) 0.1743(3) 0.3965(2) 1 0 0.0192(5) 
H4 H1- 4 e 1.5070 0.1943 0.4508 1 0 0.029 
H5 H1- 4 e 1.3837 0.2249 0.3258 1 0 0.029 
H6 H1- 4 e 1.3814 0.0717 0.3819 1 0 0.029 
O3 O2- 4 e 1.0452(2) -0.18037(17) 0.48457(13) 1 0 0.0114(3) 
C3 C4+ 4 e 0.7827(3) 0.4674(3) 0.4012(2) 1 0 0.0175(5) 
H7 H1- 4 e 0.7802 0.5715 0.3966 1 0 0.026 
H8 H1- 4 e 0.7972 0.4381 0.4793 1 0 0.026 
H9 H1- 4 e 0.6727 0.4288 0.3523 1 0 0.026 
O4 O2- 4 e 1.0267(2) -0.01109(16) 0.33541(13) 1 0 0.0103(3) 
O5 O2- 4 e 0.7216(2) 0.15889(19) 0.29102(14) 1 0 0.0140(4) 
H10 H1+ 4 e 0.709(4) 0.067(4) 0.307(3) 1 0 0.021(8) 
O6 O2- 4 e 0.9258(2) 0.41426(18) 0.36563(14) 1 0 0.0143(4) 
H11 H1+ 4 e 0.933(4) 0.462(3) 0.316(3) 1 0 0.020(8) 
O7 O2- 4 e 1.2569(2) 0.22122(18) 0.44161(14) 1 0 0.0131(3) 
H12 H1+ 4 e 1.275(4) 0.186(3) 0.503(3) 1 0 0.023(8) 

loop_
_atom_site_aniso_label
_atom_site_aniso_type_symbol
_atom_site_aniso_U_11
_atom_site_aniso_U_22
_atom_site_aniso_U_33
_atom_site_aniso_U_12
_atom_site_aniso_U_13
_atom_site_aniso_U_23
S1 S6+ 0.0126(3) 0.0086(3) 0.0057(3) -0.00008(19) 0.00448(19) -0.00005(18)
Mg1 Mg2+ 0.0127(4) 0.0094(4) 0.0066(4) 0.0003(3) 0.0045(3) 0.0004(3)
O1 O2- 0.0136(8) 0.0128(8) 0.0110(8) -0.0006(6) 0.0059(6) 0.0007(6)
C1 C4+ 0.0197(11) 0.0297(12) 0.0150(11) -0.0010(9) 0.0029(9) 0.0046(9)
O2 O2- 0.0179(8) 0.0098(8) 0.0089(8) -0.0011(6) 0.0070(6) -0.0015(6)
C2 C4+ 0.0146(11) 0.0307(14) 0.0141(11) 0.0035(10) 0.0070(9) 0.0001(10)
O3 O2- 0.0162(8) 0.0141(8) 0.0043(7) 0.0014(6) 0.0037(6) 0.0005(6)
C3 C4+ 0.0227(13) 0.0148(12) 0.0201(12) 0.0049(9) 0.0141(10) 0.0006(9)
O4 O2- 0.0155(8) 0.0083(7) 0.0091(7) -0.0009(6) 0.0066(6) 0.0004(6)
O5 O2- 0.0153(8) 0.0142(8) 0.0118(8) 0.0015(6) 0.0028(6) 0.0026(6)
O6 O2- 0.0225(9) 0.0119(8) 0.0121(8) 0.0040(7) 0.0110(7) 0.0029(6)
O7 O2- 0.0149(8) 0.0173(8) 0.0089(8) -0.0007(7) 0.0063(6) 0.0002(6)
#End of data_240383-ICSD


