data_27215-ICSD
#?2014 by Fachinformationszentrum Karlsruhe, and the U.S. Secretary of 
#Commerce on behalf of the United States.  All rights reserved.
_database_code_ICSD                27215
_audit_creation_date               1982/12/31
_chemical_name_systematic
;
Magnesium Isothiocyanate Tetrahydrate
;
_chemical_formula_structural       'Mg (N C S)2 (H2 O)4'
_chemical_formula_sum              'C2 H8 Mg1 N2 O4 S2'
_publ_section_title
;
Structure of Magnesium Isothiocyanate Tetrahydrate
;
loop_
_citation_id
_citation_journal_abbrev
_citation_year
_citation_journal_volume
_citation_page_first
_citation_page_last
_citation_journal_id_ASTM
primary 'Acta Crystallographica B (24,1968-38,1982)' 1982 38 1263 1265 ACBCAR
_publ_author_name                  'Mereiter, K.;Preisinger, A.'
_cell_length_a                     7.488(2)
_cell_length_b                     9.030(2)
_cell_length_c                     7.869(2)
_cell_angle_alpha                  90.
_cell_angle_beta                   113.63(1)
_cell_angle_gamma                  90.
_cell_volume                       487.46
_cell_formula_units_Z              2
_symmetry_space_group_name_H-M     'P 1 21/a 1'
_symmetry_Int_Tables_number        14
_refine_ls_R_factor_all            .029
loop_
_symmetry_equiv_pos_site_id
_symmetry_equiv_pos_as_xyz
  1	'x+.5, -y+.5, z'
  2	'-x, -y, -z'
  3	'-x+.5, y+.5, -z'
  4	'x, y, z'
loop_
_atom_type_symbol
_atom_type_oxidation_number
C4+	4
H1+	1
Mg2+	2
N3-	-3
O2-	-2
S2-	-2
loop_
_atom_site_label
_atom_site_type_symbol
_atom_site_symmetry_multiplicity
_atom_site_Wyckoff_symbol
_atom_site_fract_x
_atom_site_fract_y
_atom_site_fract_z
_atom_site_occupancy
_atom_site_attached_hydrogens
_atom_site_B_iso_or_equiv
Mg1 Mg2+ 2 a 0 0 0 1. 0 0 
S1 S2- 4 e 0.18192(8) 0.43514(6) 0.40256(7) 1. 0 0 
C1 C4+ 4 e 0.13681(26) 0.28832(22) 0.26841(25) 1. 0 0 
N1 N3- 4 e 0.10137(24) 0.18579(19) 0.17314(22) 1. 0 0 
O1 O2- 4 e 0.27585(20) -.08646(15) 0.10702(20) 1. 0 0 
O2 O2- 4 e 0.06424(21) 0.11067(17) -.20732(18) 1. 0 0 
H1 H1+ 4 e 0.3775 -.0371 0.2076 1. 0 5.1 
H2 H1+ 4 e 0.3157 -.1871 0.1037 1. 0 5.1 
H3 H1+ 4 e -.0565 0.1183 -.3144 1. 0 5.1 
H4 H1+ 4 e 0.1551 0.0577 -.2427 1. 0 5.1 

loop_
_atom_site_aniso_label
_atom_site_aniso_type_symbol
_atom_site_aniso_U_11
_atom_site_aniso_U_22
_atom_site_aniso_U_33
_atom_site_aniso_U_12
_atom_site_aniso_U_13
_atom_site_aniso_U_23
Mg1 Mg2+ 0.0322(5) 0.0253(5) 0.0300(5) -.0011(4) 0.0075(4) -.0023(4)
S1 S2- 0.0455(3) 0.0453(3) 0.0354(3) 0.0026(3) 0.0085(2) -.0158(2)
C1 C4+ 0.029(1) 0.0388(12) 0.0285(10) -.0015(8) 0.0078(8) -.0010(8)
N1 N3- 0.0453(11) 0.0365(9) 0.0403(10) -.0044(8) 0.0119(8) -.0090(8)
O1 O2- 0.0355(8) 0.0357(9) 0.0480(9) 0.0053(6) 0.0038(7) -.0083(7)
O2 O2- 0.0415(9) 0.0404(9) 0.0353(7) 0.0001(7) 0.0110(6) 0.0024(7)
#End of data_27215-ICSD


