data_28104-ICSD
#?2014 by Fachinformationszentrum Karlsruhe, and the U.S. Secretary of 
#Commerce on behalf of the United States.  All rights reserved.
_database_code_ICSD                28104
_audit_creation_date               1980/01/01
_audit_update_record               1989/03/08
_chemical_name_systematic
;
Trisodium Phosphonoformate Hexahydrate
;
_chemical_formula_structural       'Na3 P O3 C O2 (H2 O)6'
_chemical_formula_sum              'C1 H12 Na3 O11 P1'
_publ_section_title
;
Crystal Structure of Trisodium Phosphonoformate Hexahydrate, Na3 P O3 
C O2 (H2 O)6
;
loop_
_citation_id
_citation_journal_abbrev
_citation_year
_citation_journal_volume
_citation_page_first
_citation_page_last
_citation_journal_id_ASTM
primary
;
Journal of the Chemical Society A: Inorganic, Physical, Theoretical 
(1966-1971)
;
 1971 1971 2751 2754 JCSIAP
_publ_author_name                  'Naqvi, R.R.;Wheatley, P.J.'
_cell_length_a                     9.087(12)
_cell_length_b                     12.161(15)
_cell_length_c                     10.217(14)
_cell_angle_alpha                  90.
_cell_angle_beta                   103.95(11)
_cell_angle_gamma                  90.
_cell_volume                       1095.75
_cell_formula_units_Z              4
_symmetry_space_group_name_H-M     'P 1 21/n 1'
_symmetry_Int_Tables_number        14
_refine_ls_R_factor_all            .1068
loop_
_symmetry_equiv_pos_site_id
_symmetry_equiv_pos_as_xyz
  1	'-x+.5, y+.5, -z+.5'
  2	'-x, -y, -z'
  3	'x+.5, -y+.5, z+.5'
  4	'x, y, z'
loop_
_atom_type_symbol
_atom_type_oxidation_number
C4+	4
H1+	1
Na1+	1
O2-	-2
P3+	3
loop_
_atom_site_label
_atom_site_type_symbol
_atom_site_symmetry_multiplicity
_atom_site_Wyckoff_symbol
_atom_site_fract_x
_atom_site_fract_y
_atom_site_fract_z
_atom_site_occupancy
_atom_site_attached_hydrogens
_atom_site_U_iso_or_equiv
Na1 Na1+ 4 e 0.6161(2) 0.4520(2) 0.2536(2) 1. 0 0 
Na2 Na1+ 4 e 0.2245(2) 0.3373(1) 0.2339(2) 1. 0 0 
Na3 Na1+ 4 e 0.8591(2) 0.2335(2) 0.2254(2) 1. 0 0 
P1 P3+ 4 e 0.3491(1) 0.0929(1) 0.2176(1) 1. 0 0 
C1 C4+ 4 e 0.1882(4) 0.0867(3) 0.3024(4) 1. 0 0 
O1 O2- 4 e 0.3238(3) 0.1923(3) 0.1240(3) 1. 0 0 
O2 O2- 4 e 0.4888(3) 0.1074(3) 0.3353(3) 1. 0 0 
O3 O2- 4 e 0.3527(4) -.0157(3) 0.1439(3) 1. 0 0 
O4 O2- 4 e 0.1499(4) -.0068(3) 0.3356(3) 1. 0 0 
O5 O2- 4 e 0.1332(4) 0.1777(3) 0.3268(3) 1. 0 0 
O6 O2- 4 e 0.6042(4) 0.2988(3) 0.1033(4) 1. 0 0 
O7 O2- 4 e 0.8742(4) 0.3903(3) 0.3666(3) 1. 0 0 
O8 O2- 4 e 0.7952(4) 0.0903(3) 0.3744(4) 1. 0 0 
O9 O2- 4 e 0.8637(4) 0.0894(3) 0.0717(3) 1. 0 0 
O10 O2- 4 e 0.9700(4) 0.3688(3) 0.0992(3) 1. 0 0 
O11 O2- 4 e 0.5590(4) 0.3223(3) 0.4129(4) 1. 0 0 
H1 H1+ 4 e 0.520(16) 0.277(10) 0.110(14) 1. 0 0.068(41) 
H2 H1+ 4 e 0.578(20) 0.322(13) 0.030(16) 1. 0 0.036(55) 
H3 H1+ 4 e 0.857(9) 0.369(7) 0.439(8) 1. 0 0.021(19) 
H4 H1+ 4 e 0.962(21) 0.373(12) 0.333(17) 1. 0 0.127(19) 
H5 H1+ 4 e 0.686(16) 0.089(9) 0.361(14) 1. 0 0.052(40) 
H6 H1+ 4 e 0.806(22) 0.085(11) 0.312(17) 1. 0 0.127(40) 
H7 H1+ 4 e 0.773(15) 0.076(9) 0.006(12) 1. 0 0.039(35) 
H8 H1+ 4 e 0.939(14) 0.114(9) 0.019(12) 1. 0 0.03(3) 
H9 H1+ 4 e 0.907(26) 0.393(13) 0.109(21) 1. 0 0.127(30) 
H10 H1+ 4 e 0.989(21) 0.425(12) 0.135(17) 1. 0 0.073(55) 
H11 H1+ 4 e 0.535(14) 0.242(94) 0.375(12) 1. 0 0.047(34) 
H12 H1+ 4 e 0.643(22) 0.312(14) 0.470(19) 1. 0 0.127(34) 

loop_
_atom_site_aniso_label
_atom_site_aniso_type_symbol
_atom_site_aniso_U_11
_atom_site_aniso_U_22
_atom_site_aniso_U_33
_atom_site_aniso_U_12
_atom_site_aniso_U_13
_atom_site_aniso_U_23
Na1 Na1+ 0.019(1) 0.029(1) 0.028(1) -.002(1) 0.004(1) 0.000(1)
Na2 Na1+ 0.032(1) 0.023(1) 0.039(1) 0.001(1) 0.013(1) -.002(1)
Na3 Na1+ 0.025(1) 0.033(1) 0.034(1) -.001(1) 0.005(1) -.004(1)
P1 P3+ 0.009 0.021(1) 0.015 0 0.002 0
C1 C4+ 0.007(2) 0.021(2) 0.016(2) 0.000(1) 0.000(1) -.002(1)
O1 O2- 0.022(1) 0.025(2) 0.026(1) -.001(1) 0.005(1) 0.007(1)
O2 O2- 0.011(1) 0.038(2) 0.021(1) -.001(1) -.001(1) -.005(1)
O3 O2- 0.020(1) 0.030(2) 0.022(1) 0.003(1) 0.005(1) -.004(1)
O4 O2- 0.018(1) 0.024(2) 0.036(2) -.002(1) 0.007(1) 0.000(1)
O5 O2- 0.022(2) 0.032(2) 0.032(2) 0.002(1) 0.013(1) -.001(1)
O6 O2- 0.024(2) 0.048(2) 0.028(2) -.007(2) 0.009(1) -.003(1)
O7 O2- 0.020(1) 0.047(2) 0.021(1) -.006(1) 0.008(1) -.003(1)
O8 O2- 0.018(1) 0.041(2) 0.037(2) 0.003(1) 0.009(1) -.002(1)
O9 O2- 0.025(2) 0.037(2) 0.024(2) -.007(1) 0.001(1) -.002(1)
O10 O2- 0.033(2) 0.038(2) 0.023(1) -.003(2) 0.006(1) -.003(1)
O11 O2- 0.028(2) 0.034(2) 0.031(2) -.004(1) 0.006(1) 0.002(1)
#End of data_28104-ICSD


