data_261326-ICSD
#?2014 by Fachinformationszentrum Karlsruhe, and the U.S. Secretary of 
#Commerce on behalf of the United States.  All rights reserved.
_database_code_ICSD                261326
_audit_creation_date               2011/08/01
_chemical_name_systematic
;
Bis(trimagnesium Hexaformate) Dicarbidonitrogen
;
_chemical_formula_structural       '(Mg3 (O2 C H)6)2 (C2 N)'
_chemical_formula_sum              'C14 H12 Mg6 N1 O24'
_publ_section_title
;
Structure and gas sorption behavior of a new three dimensional porous 
magnesium formate
;
loop_
_citation_id
_citation_journal_abbrev
_citation_year
_citation_journal_volume
_citation_journal_issue
_citation_page_first
_citation_page_last
_citation_journal_id_ASTM
primary 'Inorganic Chemistry' 2011 50 4 1392 1401 INOCAJ
_publ_author_name
;
Mallick, A.;Saha, S.;Pachfule, P.;Roy, S.;Banerjee, R.
;
_cell_length_a                     9.9638(18)
_cell_length_b                     18.450(3)
_cell_length_c                     18.082(3)
_cell_angle_alpha                  90.00
_cell_angle_beta                   90.00
_cell_angle_gamma                  90.00
_cell_volume                       3324.05
_cell_formula_units_Z              4
_symmetry_space_group_name_H-M     'P b c n'
_symmetry_Int_Tables_number        60
_refine_ls_R_factor_all            .0687
loop_
_symmetry_equiv_pos_site_id
_symmetry_equiv_pos_as_xyz
  1	'x, -y, z+.5'
  2	'-x+.5, y+.5, z'
  3	'x+.5, y+.5, -z+.5'
  4	'-x, -y, -z'
  5	'-x, y, -z+.5'
  6	'x+.5, -y+.5, -z'
  7	'-x+.5, -y+.5, z+.5'
  8	'x, y, z'
loop_
_atom_type_symbol
_atom_type_oxidation_number
C1.93+	1.93
H1+	1
Mg2+	2
N3-	-3
O2-	-2
loop_
_atom_site_label
_atom_site_type_symbol
_atom_site_symmetry_multiplicity
_atom_site_Wyckoff_symbol
_atom_site_fract_x
_atom_site_fract_y
_atom_site_fract_z
_atom_site_occupancy
_atom_site_attached_hydrogens
_atom_site_U_iso_or_equiv
Mg1 Mg2+ 8 d 0.57509(18) 0.17847(7) 0.05856(9) 1 0 0.0165(4) 
Mg2 Mg2+ 8 d 0.88421(18) 0.21717(7) 0.03518(9) 1 0 0.0180(4) 
Mg3 Mg2+ 4 b 0.5000 0.0000 0.0000 1 0 0.0242(7) 
Mg4 Mg2+ 4 c 0.5000 0.18441(12) 0.2500 1 0 0.0253(7) 
O1 O2- 8 d 0.6964(4) 0.26727(15) 0.02957(18) 1 0 0.0206(9) 
O2 O2- 8 d 0.5544(4) 0.34238(16) -0.0272(2) 1 0 0.0298(10) 
O3 O2- 8 d 0.6505(4) 0.18343(17) 0.16631(18) 1 0 0.0233(9) 
O4 O2- 8 d 0.8678(4) 0.2000(2) 0.1449(2) 1 0 0.0322(10) 
O5 O2- 8 d 0.4862(4) 0.18596(16) -0.04688(19) 1 0 0.0255(9) 
O6 O2- 8 d 0.4176(4) 0.25137(15) 0.07585(18) 1 0 0.0208(8) 
O7 O2- 8 d 0.4714(4) 0.08382(15) 0.07916(18) 1 0 0.0224(9) 
O8 O2- 8 d 0.7518(4) 0.12846(15) 0.02038(18) 1 0 0.0227(9) 
O9 O2- 8 d 0.3958(5) 0.26458(18) 0.1973(2) 1 0 0.0445(12) 
O10 O2- 8 d 0.3962(4) 0.10773(18) 0.1927(2) 1 0 0.0361(11) 
O11 O2- 8 d 0.7039(4) 0.01247(16) 0.0089(2) 1 0 0.0386(11) 
O12 O2- 8 d 0.4985(5) 0.07193(17) -0.0851(2) 1 0 0.0388(11) 
C1 C1.93+ 8 d 0.6657(7) 0.3267(3) -0.0011(3) 1 0 0.0301(15) 
H1 H1+ 8 d 0.7327 0.3617 -0.0044 1 0 0.036 
C2 C1.93+ 8 d 0.7809(7) 0.0632(2) 0.0117(3) 1 0 0.0311(16) 
H2 H1+ 8 d 0.8717 0.0523 0.0070 1 0 0.037 
C3 C1.93+ 8 d 0.7719(7) 0.1884(3) 0.1853(3) 1 0 0.0380(16) 
H3 H1+ 8 d 0.7904 0.1826 0.2354 1 0 0.046 
C4 C1.93+ 8 d 0.3680(7) 0.2792(3) 0.1330(3) 1 0 0.0373(17) 
H4 H1+ 8 d 0.3032 0.3148 0.1258 1 0 0.045 
C5 C1.93+ 8 d 0.4806(6) 0.1369(3) -0.0959(3) 1 0 0.0321(15) 
H5 H1+ 8 d 0.4615 0.1514 -0.1440 1 0 0.038 
C6 C1.93+ 8 d 0.4002(7) 0.0708(3) 0.1361(3) 1 0 0.0326(16) 
H6 H1+ 8 d 0.3463 0.0297 0.1348 1 0 0.039 
N1 N3- 4 c 1.0000 0.9966(18) 0.2500 1 0 0.334(16) 
C7 C1.93+ 8 d 1.118(6) 0.956(3) 0.288(3) 1 0 0.66(4) 

loop_
_atom_site_aniso_label
_atom_site_aniso_type_symbol
_atom_site_aniso_U_11
_atom_site_aniso_U_22
_atom_site_aniso_U_33
_atom_site_aniso_U_12
_atom_site_aniso_U_13
_atom_site_aniso_U_23
Mg1 Mg2+ 0.0155(11) 0.0171(7) 0.0169(9) 0.0010(8) 0.0025(8) 0.0004(6)
Mg2 Mg2+ 0.0174(12) 0.0179(7) 0.0189(10) -0.0031(7) -0.0002(9) 0.0013(6)
Mg3 Mg2+ 0.0316(19) 0.0164(10) 0.0246(14) -0.0051(13) 0.0058(14) -0.0061(9)
Mg4 Mg2+ 0.0280(18) 0.0340(12) 0.0140(14) 0.000 0.0085(13) 0.000
O1 O2- 0.014(2) 0.0214(16) 0.027(2) 0.0014(15) 0.0021(17) 0.0068(13)
O2 O2- 0.018(2) 0.0278(18) 0.043(3) 0.0000(17) -0.0066(19) 0.0118(15)
O3 O2- 0.019(3) 0.0324(18) 0.018(2) -0.0003(18) 0.0044(18) 0.0027(14)
O4 O2- 0.013(2) 0.056(2) 0.028(2) -0.005(2) 0.005(2) 0.0104(17)
O5 O2- 0.030(3) 0.0215(16) 0.026(2) 0.0011(17) -0.0042(19) -0.0025(14)
O6 O2- 0.021(2) 0.0263(16) 0.015(2) 0.0027(18) -0.0028(18) -0.0003(14)
O7 O2- 0.030(3) 0.0162(16) 0.021(2) -0.0043(16) 0.0060(18) -0.0025(13)
O8 O2- 0.022(2) 0.0119(14) 0.034(2) -0.0010(16) 0.0052(18) -0.0046(12)
O9 O2- 0.068(4) 0.045(2) 0.020(2) 0.012(2) 0.010(2) 0.0052(16)
O10 O2- 0.036(3) 0.047(2) 0.025(2) -0.010(2) 0.016(2) -0.0158(17)
O11 O2- 0.034(3) 0.0187(18) 0.063(3) -0.0063(19) 0.005(2) -0.0126(16)
O12 O2- 0.057(3) 0.028(2) 0.031(3) -0.003(2) 0.009(2) -0.0064(15)
C1 C1.93+ 0.033(5) 0.025(3) 0.033(3) -0.006(3) 0.000(3) 0.010(2)
C2 C1.93+ 0.025(4) 0.018(3) 0.049(4) 0.006(3) 0.004(3) -0.006(2)
C3 C1.93+ 0.032(5) 0.069(4) 0.013(3) 0.001(4) -0.005(3) 0.001(3)
C4 C1.93+ 0.048(5) 0.037(3) 0.027(4) 0.031(3) 0.011(3) 0.005(2)
C5 C1.93+ 0.051(5) 0.032(3) 0.014(3) 0.000(3) -0.017(3) 0.007(2)
C6 C1.93+ 0.036(5) 0.030(3) 0.032(4) -0.007(3) 0.019(3) -0.006(2)
#End of data_261326-ICSD


