data_250558-ICSD
#?2014 by Fachinformationszentrum Karlsruhe, and the U.S. Secretary of 
#Commerce on behalf of the United States.  All rights reserved.
_database_code_ICSD                250558
_audit_creation_date               2014/08/01
_chemical_name_systematic
;
Trichloro(dimethylselenide)aluminium
;
_chemical_formula_structural       '((C H3)2 Se) Al Cl3'
_chemical_formula_sum              'C2 H6 Al1 Cl3 Se1'
_publ_section_title
;
Thio-, seleno- and telluro-ether complexes of aluminium(III) halides: 
synthesis, structures and properties
;
loop_
_citation_id
_citation_journal_abbrev
_citation_year
_citation_journal_volume
_citation_journal_issue
_citation_page_first
_citation_page_last
_citation_journal_id_ASTM
primary 'Dalton Transactions' 2014 43 9 3637 3648 DTARAF
_publ_author_name
;
George, Kathryn;Jura, Marek;Levason, William;Light, Mark E.;Reid, 
Gillian
;
_cell_length_a                     6.205(4)
_cell_length_b                     12.603(8)
_cell_length_c                     10.479(6)
_cell_angle_alpha                  90.00
_cell_angle_beta                   90.00
_cell_angle_gamma                  90.00
_cell_volume                       819.47
_cell_formula_units_Z              4
_symmetry_space_group_name_H-M     'P b c m'
_symmetry_Int_Tables_number        57
_refine_ls_R_factor_all            .0387
loop_
_symmetry_equiv_pos_site_id
_symmetry_equiv_pos_as_xyz
  1	'x, -y+.5, z+.5'
  2	'-x, y+.5, z'
  3	'x, y, -z+.5'
  4	'-x, -y, -z'
  5	'-x, y+.5, -z+.5'
  6	'x, -y+.5, -z'
  7	'-x, -y, z+.5'
  8	'x, y, z'
loop_
_atom_type_symbol
_atom_type_oxidation_number
Al3+	3
C4+	4
Cl1-	-1
H1-	-1
Se2-	-2
loop_
_atom_site_label
_atom_site_type_symbol
_atom_site_symmetry_multiplicity
_atom_site_Wyckoff_symbol
_atom_site_fract_x
_atom_site_fract_y
_atom_site_fract_z
_atom_site_occupancy
_atom_site_attached_hydrogens
_atom_site_U_iso_or_equiv
Se1 Se2- 4 d 0.36460(8) 0.86829(4) 0.7500 1 0 0.01973(19) 
Cl1 Cl1- 4 d 0.78567(17) 1.07244(9) 0.7500 1 0 0.0217(3) 
Cl2 Cl1- 8 e 0.31244(16) 1.12338(7) 0.57966(8) 1 0 0.0262(2) 
Al1 Al3+ 4 d 0.4446(2) 1.06161(11) 0.7500 1 0 0.0171(3) 
C1 C4+ 8 e 0.1561(6) 0.8588(3) 0.8887(3) 1 0 0.0255(8) 
H1 H1- 8 e 0.0504 0.9162 0.8805 1 0 0.038 
H2 H1- 8 e 0.2311 0.8653 0.9706 1 0 0.038 
H3 H1- 8 e 0.0821 0.7902 0.8847 1 0 0.038 

loop_
_atom_site_aniso_label
_atom_site_aniso_type_symbol
_atom_site_aniso_U_11
_atom_site_aniso_U_22
_atom_site_aniso_U_33
_atom_site_aniso_U_12
_atom_site_aniso_U_13
_atom_site_aniso_U_23
Se1 Se2- 0.0221(3) 0.0142(3) 0.0229(3) 0.00016(17) 0.000 0.000
Cl1 Cl1- 0.0183(6) 0.0218(6) 0.0252(6) -0.0005(4) 0.000 0.000
Cl2 Cl1- 0.0279(5) 0.0250(5) 0.0258(5) -0.0010(3) -0.0063(4) 0.0083(3)
Al1 Al3+ 0.0193(7) 0.0157(7) 0.0163(7) 0.0007(5) 0.000 0.000
C1 C4+ 0.037(2) 0.0238(19) 0.0157(18) -0.0067(14) 0.0033(15) 0.0032(13)
#End of data_250558-ICSD


