data_1295-ICSD
#?2014 by Fachinformationszentrum Karlsruhe, and the U.S. Secretary of 
#Commerce on behalf of the United States.  All rights reserved.
_database_code_ICSD                1295
_audit_creation_date               1980/01/01
_audit_update_record               2013/08/01
_chemical_name_systematic          'Sodium Hydrogenoxalate Hydrate'
_chemical_formula_structural       'Na (H C2 O4) (H2 O)'
_chemical_formula_sum              'C2 H3 Na1 O5'
_publ_section_title
;
Hydrogen bond studies. CX. A neutron diffraction and deformation 
electron density study of sodium hydrogen oxalate monohydrate, Na H 
C2 O4 (H2 O)
;
loop_
_citation_id
_citation_journal_abbrev
_citation_year
_citation_journal_volume
_citation_page_first
_citation_page_last
_citation_journal_id_ASTM
primary 'Acta Crystallographica B (24,1968-38,1982)' 1977 33 3500 3504 ACBCAR
_publ_author_name
;
Tellgren, R.;Thomas, J.O.;Olovsson, I.
;
_cell_length_a                     6.5032(8)
_cell_length_b                     6.6728(7)
_cell_length_c                     5.6982(8)
_cell_angle_alpha                  85.036(5)
_cell_angle_beta                   109.997(6)
_cell_angle_gamma                  105.016(10)
_cell_volume                       224.43
_cell_formula_units_Z              2
_symmetry_space_group_name_H-M     'P -1'
_symmetry_Int_Tables_number        2
_refine_ls_R_factor_all            .021
loop_
_symmetry_equiv_pos_site_id
_symmetry_equiv_pos_as_xyz
  1	'-x, -y, -z'
  2	'x, y, z'
loop_
_atom_type_symbol
_atom_type_oxidation_number
C3+	3
H1+	1
Na1+	1
O2-	-2
loop_
_atom_site_label
_atom_site_type_symbol
_atom_site_symmetry_multiplicity
_atom_site_Wyckoff_symbol
_atom_site_fract_x
_atom_site_fract_y
_atom_site_fract_z
_atom_site_occupancy
_atom_site_attached_hydrogens
Na1 Na1+ 2 i 0.25157(17) 0.02760(17) 0.24034(19) 1. 0 
O1 O2- 2 i 0.24554(12) 0.35585(10) 0.34233(12) 1. 0 
O2 O2- 2 i 0.26334(12) 0.67188(11) 0.17220(12) 1. 0 
O3 O2- 2 i 0.33439(10) 0.83228(10) 0.61211(11) 1. 0 
O4 O2- 2 i 0.23480(12) 0.51494(10) 0.76240(12) 1. 0 
C1 C3+ 2 i 0.25835(8) 0.53910(8) 0.35400(9) 1. 0 
C2 C3+ 2 i 0.27686(8) 0.63939(8) 0.59853(9) 1. 0 
O5 O2- 2 i 0.14506(12) 0.08182(11) 0.81388(13) 1. 0 
H1 H1+ 2 i 0.18940(25) 0.22316(23) 0.76277(29) 1. 0 
H2 H1+ 2 i 0.20809(28) -.00163(24) 0.74098(28) 1. 0 
H3 H1+ 2 i 0.25444(23) 0.60393(20) 0.01122(23) 1. 0 

#End of data_1295-ICSD


