data_63138-ICSD
#?2014 by Fachinformationszentrum Karlsruhe, and the U.S. Secretary of 
#Commerce on behalf of the United States.  All rights reserved.
_database_code_ICSD                63138
_audit_creation_date               1989/06/19
_chemical_name_systematic
;
Potassium Magnesium Di-mue-hydrogen Bis(carbonate) Tetrahydrate
;
_chemical_formula_structural       'K Mg H (C O3)2 (H2 O)4'
_chemical_formula_sum              'C2 H9 K1 Mg1 O10'
_publ_section_title
;
Structure of potassium magnesium hydrogenbiscarbonate tetrahydrate.
;
loop_
_citation_id
_citation_journal_abbrev
_citation_year
_citation_journal_volume
_citation_page_first
_citation_page_last
_citation_journal_id_ASTM
primary 'Acta Crystallographica, Section C: Crystal Structure Communications'
 1988 44 1168 1172 ACSCEE
_publ_author_name
;
Fernandes, N.G.;Tellgren, R.;Olovsson, I.
;
_cell_length_a                     6.7125(7)
_cell_length_b                     7.3439(9)
_cell_length_c                     5.3677(8)
_cell_angle_alpha                  107.267(8)
_cell_angle_beta                   107.965(7)
_cell_angle_gamma                  59.546(8)
_cell_volume                       213.77
_cell_formula_units_Z              1
_symmetry_space_group_name_H-M     'P -1'
_symmetry_Int_Tables_number        2
_refine_ls_R_factor_all            .023
loop_
_symmetry_equiv_pos_site_id
_symmetry_equiv_pos_as_xyz
  1	'-x, -y, -z'
  2	'x, y, z'
loop_
_atom_type_symbol
_atom_type_oxidation_number
C4+	4
H1+	1
K1+	1
Mg2+	2
O2-	-2
loop_
_atom_site_label
_atom_site_type_symbol
_atom_site_symmetry_multiplicity
_atom_site_Wyckoff_symbol
_atom_site_fract_x
_atom_site_fract_y
_atom_site_fract_z
_atom_site_occupancy
_atom_site_attached_hydrogens
_atom_site_U_iso_or_equiv
K1 K1+ 1 a 0 0 0 1. 0 0 
Mg1 Mg2+ 1 g 0 0.5 0.5 1. 0 0 
O1 O2- 2 i 0.01796(27) 0.76145(23) 0.46025(32) 1. 0 0 
O2 O2- 2 i 0.76283(26) 0.50808(23) 0.13759(27) 1. 0 0 
O3 O2- 2 i 0.26926(23) 0.29539(22) 0.29597(25) 1. 0 0 
O4 O2- 2 i 0.59691(24) 0.24362(24) 0.60656(26) 1. 0 0 
O5 O2- 2 i 0.62034(23) 0.05479(22) 0.20124(26) 1. 0 0 
C1 C4+ 2 i 0.49123(31) 0.20274(28) 0.37462(35) 1. 0 0 
H1 H1+ 2 i 0.156(7) 0.741(5) 0.419(7) 1. 0 0.073(12) 
H2 H1+ 2 i -.090(5) 0.846(4) 0.380(5) 1. 0 0.035(7) 
H3 H1+ 2 i 0.749(7) 0.566(6) 0.006(8) 1. 0 0.087(13) 
H4 H1+ 2 i 0.625(7) 0.591(5) 0.181(7) 1. 0 0.062(10) 
H5 H1+ 1 d 0.5 0 0 1. 0 0 

#End of data_63138-ICSD


