data_108083-ICSD
#?2014 by Fachinformationszentrum Karlsruhe, and the U.S. Secretary of 
#Commerce on behalf of the United States.  All rights reserved.
_database_code_ICSD                108083
_audit_creation_date               2011/02/01
_audit_update_record               2012/08/01
_chemical_name_systematic
;
Bis(tetramethylammonium) Diaqualithiohexachromate(III)
;
_chemical_formula_structural
;
((C H3)4 N)2 (Li Cr (C N)6 (H2 O)2)
;
_chemical_formula_sum              'C14 H28 Cr1 Li1 N8 O2'
_publ_section_title
;
Hydratisierte Cyanoelpasolithe: Die Kristallstrukturen von (N Me4)2 
Li (H2 O)2 (Cr (C N)6) und (N Me4)2 Na (H2 O)2 (M (C N)6) (M=Cr,Co)
;
loop_
_citation_id
_citation_journal_abbrev
_citation_year
_citation_journal_volume
_citation_page_first
_citation_page_last
_citation_journal_id_ASTM
primary 'Zeitschrift fuer Naturforschung, B: Chemical Sciences'
 2000 55 487 494 ZNBSEN
_publ_author_name                  'Schwarten, M.;Witzel, M.;Babel, D.'
_cell_length_a                     17.367(2)
_cell_length_b                     8.880(1)
_cell_length_c                     16.593(1)
_cell_angle_alpha                  90
_cell_angle_beta                   119.33(1)
_cell_angle_gamma                  90
_cell_volume                       2230.93
_cell_formula_units_Z              4
_symmetry_space_group_name_H-M     'C 1 2/c 1'
_symmetry_Int_Tables_number        15
_refine_ls_R_factor_all            .045
loop_
_symmetry_equiv_pos_site_id
_symmetry_equiv_pos_as_xyz
  1	'x, -y, z+.5'
  2	'-x, -y, -z'
  3	'-x, y, -z+.5'
  4	'x, y, z'
  5	'x+.5, -y+.5, z+.5'
  6	'-x+.5, -y+.5, -z'
  7	'-x+.5, y+.5, -z+.5'
  8	'x+.5, y+.5, z'
loop_
_atom_type_symbol
_atom_type_oxidation_number
C2+	2
C4+	4
Cr3+	3
H1-	-1
H1+	1
Li1+	1
N3-	-3
O2-	-2
loop_
_atom_site_label
_atom_site_type_symbol
_atom_site_symmetry_multiplicity
_atom_site_Wyckoff_symbol
_atom_site_fract_x
_atom_site_fract_y
_atom_site_fract_z
_atom_site_occupancy
_atom_site_attached_hydrogens
_atom_site_U_iso_or_equiv
Cr1 Cr3+ 4 c 0.25 0.25 0 1. 0 .0229(1) 
C1 C2+ 8 f 0.3221(1) 0.2788(2) -0.0677(1) 1. 0 .0353(4) 
N1 N3- 8 f 0.3631(2) 0.2892(3) -0.1039(2) 1. 0 .0584(5) 
C2 C2+ 8 f 0.3500(1) 0.1090(2) 0.0936(1) 1. 0 .0348(4) 
N2 N3- 8 f 0.4073(1) 0.0352(2) 0.1453(1) 1. 0 .0509(5) 
C3 C2+ 8 f 0.1860(1) 0.0688(2) -0.0866(1) 1. 0 .0380(4) 
N3 N3- 8 f 0.1517(2) -0.0285(3) -0.1359(2) 1. 0 .0666(6) 
N4 N3- 8 f 0.1228(1) 0.2471(2) 0.6156(1) 1. 0 .0470(4) 
C4 C4+ 8 f 0.0964(4) 0.2343(6) 0.5199(3) 1. 0 .134(2) 
H1 H1- 8 f 0.0358 0.2787 0.4807 1. 0 .14 
H2 H1- 8 f 0.0968 0.1401 0.4963 1. 0 .14 
H3 H1- 8 f 0.1338 0.3029 0.5047 1. 0 .14 
C5 C4+ 8 f 0.0605(2) 0.1558(4) 0.6344(3) 1. 0 .089(1) 
H4 H1- 8 f 0.0024 0.1913 0.5995 1. 0 .09 
H5 H1- 8 f 0.0796 0.1529 0.6983 1. 0 .09 
H6 H1- 8 f 0.0607(8) 0.0491(18) 0.6144(10) 1. 0 .09 
C6 C4+ 8 f 0.2126(3) 0.1877(7) 0.6669(4) 1. 0 .164(3) 
H7 H1- 8 f 0.2311 0.1830 0.7305 1. 0 .17 
H8 H1- 8 f 0.2501 0.2458 0.6539 1. 0 .17 
H9 H1- 8 f 0.2131 0.0830 0.6454 1. 0 .17 
C7 C4+ 8 f 0.126(5) 0.4023(4) 0.6417(5) 1. 0 .169(3) 
H10 H1- 8 f 0.1378 0.4131 0.7035 1. 0 .17 
H11 H1- 8 f 0.0621 0.4435 0.6026 1. 0 .17 
H12 H1- 8 f 0.1607 0.4604 0.6268 1. 0 .17 
Li1 Li1+ 4 e 0 0.4012(5) 0.25 1. 0 .0326(8) 
O1 O2- 8 f 0.0633(1) 0.2545(2) 0.2203(1) 1. 0 .0521(4) 
H13 H1+ 8 f 0.0772 0.209 0.1618 1. 0 .13 
H14 H1+ 8 f 0.1079 0.203 0.2596 1. 0 .13 

#End of data_108083-ICSD


