data_67245-ICSD
#?2014 by Fachinformationszentrum Karlsruhe, and the U.S. Secretary of 
#Commerce on behalf of the United States.  All rights reserved.
_database_code_ICSD                67245
_audit_creation_date               1990/12/27
_chemical_name_systematic          'Sodium Dicyanoiodate(I) Dihydrate'
_chemical_formula_structural       'Na (I (C N)2) (H2 O)2'
_chemical_formula_sum              'C2 H4 I1 N2 Na1 O2'
_publ_section_title
;
Untersuchungen an Polypseudohalogeniden, VI Darstellung und 
Kristallstruktur des Natriumcyanoiodat(I)dihydrats, Na(I(CN)2)2H2O
;
loop_
_citation_id
_citation_journal_abbrev
_citation_year
_citation_journal_volume
_citation_page_first
_citation_page_last
_citation_journal_id_ASTM
primary 'Zeitschrift fuer Naturforschung, B: Chemical Sciences'
 1989 44 637 640 ZNBSEN
_publ_author_name                  'Tebbe, K.F.;Krauss, N.'
_cell_length_a                     10.440(2)
_cell_length_b                     4.802(2)
_cell_length_c                     7.302(2)
_cell_angle_alpha                  90.
_cell_angle_beta                   95.94(2)
_cell_angle_gamma                  90.
_cell_volume                       364.1
_cell_formula_units_Z              2
_symmetry_space_group_name_H-M     'P 1 21/c 1'
_symmetry_Int_Tables_number        14
_refine_ls_R_factor_all            .027
loop_
_symmetry_equiv_pos_site_id
_symmetry_equiv_pos_as_xyz
  1	'x, -y+.5, z+.5'
  2	'-x, -y, -z'
  3	'-x, y+.5, -z+.5'
  4	'x, y, z'
loop_
_atom_type_symbol
_atom_type_oxidation_number
C2+	2
H1+	1
I1+	1
N3-	-3
Na1+	1
O2-	-2
loop_
_atom_site_label
_atom_site_type_symbol
_atom_site_symmetry_multiplicity
_atom_site_Wyckoff_symbol
_atom_site_fract_x
_atom_site_fract_y
_atom_site_fract_z
_atom_site_occupancy
_atom_site_attached_hydrogens
_atom_site_U_iso_or_equiv
I1 I1+ 2 a 0 0 0 1. 0 0 
Na1 Na1+ 2 b 0.5 0.5 0.5 1. 0 0 
O1 O2- 4 e 0.3989(3) 0.2527(7) 0.7369(4) 1. 0 0 
N1 N3- 4 e 0.2906(4) 0.6892(10) 0.9646(6) 1. 0 0 
C1 C2+ 4 e 0.1944(5) 0.7810(11) 0.9742(6) 1. 0 0 
H1 H1+ 4 e 0.337(4) 0.129(7) 0.682(7) 1. 0 0.064(13) 
H2 H1+ 4 e 0.355(4) 0.415(6) 0.769(7) 1. 0 0.064(13) 

loop_
_atom_site_aniso_label
_atom_site_aniso_type_symbol
_atom_site_aniso_U_11
_atom_site_aniso_U_22
_atom_site_aniso_U_33
_atom_site_aniso_U_12
_atom_site_aniso_U_13
_atom_site_aniso_U_23
I1 I1+ 0.0440(3) 0.0460(3) 0.0377(2) 0.0046(3) 0.0048(1) -.0001(3)
Na1 Na1+ 0.0514(13) 0.0441(13) 0.0402(11) 0.001(2) 0.0069(10) 0.002(2)
O1 O2- 0.051(2) 0.032(2) 0.047(2) 0.000(2) 0.006(1) 0.002(2)
N1 N3- 0.048(2) 0.057(3) 0.056(2) 0.002(2) 0.008(2) -.002(2)
C1 C2+ 0.049(3) 0.041(3) 0.045(3) 0.000(3) 0.008(2) -.001(2)
#End of data_67245-ICSD


