data_110023-ICSD
#?2014 by Fachinformationszentrum Karlsruhe, and the U.S. Secretary of 
#Commerce on behalf of the United States.  All rights reserved.
_database_code_ICSD                110023
_audit_creation_date               2008/02/01
_chemical_name_systematic
;
Tetraaqua(nitromethane)potassium Bromide Hydrate
;
_chemical_formula_structural       '(K (C H3 N O2) (H2 O)4) Br (H2 O)'
_chemical_formula_sum              'C1 H13 Br1 K1 N1 O7'
_publ_section_title
;
Tetraaqua(nitromethane)potassium bromide monohydrate
;
loop_
_citation_id
_citation_journal_abbrev
_citation_year
_citation_journal_volume
_citation_journal_issue
_citation_page_first
_citation_page_last
_citation_journal_id_ASTM
primary 'Acta Crystallographica, Section E. Structure Reports Online'
 2001 57 2 m53 m54 ACSEBH
_publ_author_name                  'Willett, R.D.'
_cell_length_a                     6.8004(3)
_cell_length_b                     13.8358(5)
_cell_length_c                     10.8658(4)
_cell_angle_alpha                  90.00
_cell_angle_beta                   97.8960(10)
_cell_angle_gamma                  90.00
_cell_volume                       1012.66
_cell_formula_units_Z              4
_symmetry_space_group_name_H-M     'P 1 21/n 1'
_symmetry_Int_Tables_number        14
_refine_ls_R_factor_all            .04
loop_
_symmetry_equiv_pos_site_id
_symmetry_equiv_pos_as_xyz
  1	'-x+.5, y+.5, -z+.5'
  2	'-x, -y, -z'
  3	'x+.5, -y+.5, z+.5'
  4	'x, y, z'
loop_
_atom_type_symbol
_atom_type_oxidation_number
Br1-	-1
C4+	4
H1+	1
K1+	1
N3-	-3
O2-	-2
loop_
_atom_site_label
_atom_site_type_symbol
_atom_site_symmetry_multiplicity
_atom_site_Wyckoff_symbol
_atom_site_fract_x
_atom_site_fract_y
_atom_site_fract_z
_atom_site_occupancy
_atom_site_attached_hydrogens
_atom_site_U_iso_or_equiv
Br1 Br1- 4 e .10631(8) .66576(4) -.03113(5) 1 0 .0476(3) 
K1 K1+ 4 e .23119(12) .52923(6) .41211(8) 1 0 .0212(3) 
O1 O2- 4 e .1569(6) .3550(3) .3808(4) 1 0 .0460(9) 
O2 O2- 4 e .2101(6) .4895(3) .1846(3) 1 0 .0446(9) 
O3 O2- 4 e .2141(7) .6833(3) .3017(4) 1 0 .0569(11) 
O4 O2- 4 e .4731(6) .6512(3) -.1998(4) 1 0 .0564(11) 
O5 O2- 4 e .2656(6) .6654(3) .5625(4) 1 0 .0496(10) 
O6 O2- 4 e .4316(4) .4578(2) .6055(3) 1 0 .0325(8) 
N1 N3- 4 e .2844(6) .4423(3) .6622(4) 1 0 .0468(11) 
C1 C4+ 4 e .3134(10) .3942(5) .7861(6) 1 0 .0512(16) 
O7 O2- 4 e .1123(4) .4671(3) .6151(3) 1 0 .0386(8) 
H1 H1+ 4 e .313(16) .325(8) .766(10) 1 0 .15(4) 
H2 H1+ 4 e .214(10) .398(5) .830(6) 1 0 .07(2) 
H3 H1+ 4 e .420(13) .399(6) .830(8) 1 0 .10(3) 
H4 H1+ 4 e .333(9) .655(4) .640(4) 1 0 .062(19) 
H5 H1+ 4 e .323(10) .717(4) .531(6) 1 0 .08(2) 
H6 H1+ 4 e .570(8) .601(4) -.177(6) 1 0 .08(2) 
H7 H1+ 4 e .377(9) .646(5) -.144(6) 1 0 .09(2) 
H8 H1+ 4 e .105(9) .723(5) .288(7) 1 0 .11(3) 
H9 H1+ 4 e .331(11) .721(7) .302(14) 1 0 .27(8) 
H10 H1+ 4 e .192(10) .541(4) .136(5) 1 0 .07(2) 
H11 H1+ 4 e .118(9) .441(4) .154(6) 1 0 .08(2) 
H12 H1+ 4 e .025(6) .348(4) .381(6) 1 0 .07(2) 
H13 H1+ 4 e .222(8) .310(4) .431(5) 1 0 .060(18) 

#End of data_110023-ICSD


