data_109986-ICSD
#?2014 by Fachinformationszentrum Karlsruhe, and the U.S. Secretary of 
#Commerce on behalf of the United States.  All rights reserved.
_database_code_ICSD                109986
_audit_creation_date               2008/02/01
_chemical_name_systematic          'Potassium Hydrogen Diformate'
_chemical_formula_structural       'K H (H C O2)2'
_chemical_formula_sum              'C2 H3 K1 O4'
_publ_section_title
;
Crystal structures of potassium, rubidium, and cesium biformates
;
loop_
_citation_id
_citation_journal_abbrev
_citation_year
_citation_journal_volume
_citation_page_first
_citation_page_last
_citation_journal_id_ASTM
primary 'Koordinatsionnaya Khimiya (= Coordination Chemistry (USSR))'
 1982 8 94 97 KOKHDC
_publ_author_name
;
Trunov, V.K.;Velikodnyi, Yu.A.;Chubinidze, A.D.;Sas, T.M.
;
_cell_length_a                     7.374(2)
_cell_length_b                     17.703(3)
_cell_length_c                     7.504(2)
_cell_angle_alpha                  90
_cell_angle_beta                   90
_cell_angle_gamma                  90
_cell_volume                       979.59
_cell_formula_units_Z              8
_symmetry_space_group_name_H-M     'P b c a'
_symmetry_Int_Tables_number        61
_refine_ls_R_factor_all            .035
loop_
_symmetry_equiv_pos_site_id
_symmetry_equiv_pos_as_xyz
  1	'x+.5, y, -z+.5'
  2	'x, -y+.5, z+.5'
  3	'-x+.5, y+.5, z'
  4	'-x, -y, -z'
  5	'-x+.5, -y, z+.5'
  6	'-x, y+.5, -z+.5'
  7	'x+.5, -y+.5, -z'
  8	'x, y, z'
loop_
_atom_type_symbol
_atom_type_oxidation_number
C2+	2
H1+	1
K1+	1
O2-	-2
loop_
_atom_site_label
_atom_site_type_symbol
_atom_site_symmetry_multiplicity
_atom_site_Wyckoff_symbol
_atom_site_fract_x
_atom_site_fract_y
_atom_site_fract_z
_atom_site_occupancy
_atom_site_attached_hydrogens
K1 K1+ 8 c 0.28410 0.03710 0.43770 1. 0 
C1 C2+ 8 c -0.02310 0.12210 0.68280 1. 0 
O1 O2- 8 c -0.01450 0.05470 0.71730 1. 0 
O2 O2- 8 c 0.07880 0.15690 0.57640 1. 0 
H1 H1+ 8 c -0.10800 0.15600 0.73700 1. 0 
C2 C2+ 8 c 0.14280 0.33210 0.62500 1. 0 
O3 O2- 8 c 0.14450 0.40090 0.62600 1. 0 
O4 O2- 8 c 0.02040 0.29210 0.55710 1. 0 
H2 H1+ 8 c 0.23500 0.30000 0.68100 1. 0 
H3 H1+ 8 c 0.05300 0.23000 0.56700 1. 0 

#End of data_109986-ICSD


