data_262907-ICSD
#?2014 by Fachinformationszentrum Karlsruhe, and the U.S. Secretary of 
#Commerce on behalf of the United States.  All rights reserved.
_database_code_ICSD                262907
_audit_creation_date               2012/08/01
_chemical_name_systematic          'Sodium Samarium Aqua Phosphonate'
_chemical_formula_structural       'Na Sm (H2 O) (C H2 (P O3)2)'
_chemical_formula_sum              'C1 H4 Na1 O7 P2 Sm1'
_publ_section_title
;
Periodic trends in lanthanide and actinide phosphonates: 
discontinuity between plutonium and americium
;
loop_
_citation_id
_citation_journal_abbrev
_citation_year
_citation_journal_volume
_citation_journal_issue
_citation_page_first
_citation_page_last
_citation_journal_id_ASTM
primary 'Inorganic Chemistry' 2012 51 12 6906 6915 INOCAJ
_publ_author_name
;
Diwu Juan;Grant, D.J.;Wang Shuao;Gagliardi, L.;Albrecht-Schmitt, T.E.
;
_cell_length_a                     6.7011(19)
_cell_length_b                     15.048(4)
_cell_length_c                     6.6862(19)
_cell_angle_alpha                  90.00
_cell_angle_beta                   90.591(6)
_cell_angle_gamma                  90.00
_cell_volume                       674.19
_cell_formula_units_Z              4
_symmetry_space_group_name_H-M     'P 1 21/c 1'
_symmetry_Int_Tables_number        14
_refine_ls_R_factor_all            .0222
loop_
_symmetry_equiv_pos_site_id
_symmetry_equiv_pos_as_xyz
  1	'x, -y+.5, z+.5'
  2	'-x, -y, -z'
  3	'-x, y+.5, -z+.5'
  4	'x, y, z'
loop_
_atom_type_symbol
_atom_type_oxidation_number
C2+	2
H1-	-1
H1+	1
Na1+	1
O2-	-2
P3+	3
Sm3+	3
loop_
_atom_site_label
_atom_site_type_symbol
_atom_site_symmetry_multiplicity
_atom_site_Wyckoff_symbol
_atom_site_fract_x
_atom_site_fract_y
_atom_site_fract_z
_atom_site_occupancy
_atom_site_attached_hydrogens
_atom_site_U_iso_or_equiv
Sm1 Sm3+ 4 e 0.32700(3) 0.401232(15) 0.10310(3) 1 0 0.00679(9) 
P1 P3+ 4 e 0.17576(17) 0.59709(8) 0.13438(17) 1 0 0.0040(2) 
P2 P3+ 4 e 0.47140(17) 0.33993(7) -0.39403(17) 1 0 0.0040(2) 
O1 O2- 4 e 0.3575(5) 0.3995(2) -0.2520(5) 1 0 0.0069(6) 
O2 O2- 4 e 0.6760(5) 0.4378(2) 0.0232(5) 1 0 0.0072(6) 
O3 O2- 4 e 0.0085(5) 0.3643(2) -0.0346(5) 1 0 0.0079(6) 
O4 O2- 4 e 0.3687(5) 0.2497(2) 0.0706(5) 1 0 0.0079(6) 
O5 O2- 4 e 0.0694(5) 0.3344(2) 0.3537(5) 1 0 0.0096(7) 
O6 O2- 4 e 0.1354(5) 0.5192(2) 0.2755(5) 1 0 0.0060(6) 
O7 O2- 4 e 0.5109(5) 0.3869(2) 0.4075(5) 1 0 0.0063(6) 
C1 C2+ 4 e 0.7087(6) 0.3152(3) -0.2766(7) 1 0 0.0057(9) 
H1 H1- 4 e 0.6905 0.2646 -0.1885 1 0 0.007 
H2 H1+ 4 e 0.8006 0.2970 -0.3801 1 0 0.007 
H3 H1+ 4 e 0.121(8) 0.291(3) 0.425(7) 1 0 0.007 
H4 H1+ 4 e -0.003(7) 0.313(3) 0.256(6) 1 0 0.007 
Na1 Na1+ 4 e 0.1931(3) 0.52890(13) -0.3643(3) 1 0 0.0085(4) 

loop_
_atom_site_aniso_label
_atom_site_aniso_type_symbol
_atom_site_aniso_U_11
_atom_site_aniso_U_22
_atom_site_aniso_U_33
_atom_site_aniso_U_12
_atom_site_aniso_U_13
_atom_site_aniso_U_23
Sm1 Sm3+ 0.00682(13) 0.00773(14) 0.00582(13) 0.00044(9) 0.00044(8) 
0.00016(9)
P1 P3+ 0.0031(5) 0.0055(5) 0.0034(5) 0.0006(4) -0.0002(4) -0.0001(4)
P2 P3+ 0.0039(5) 0.0051(5) 0.0030(5) -0.0009(4) 0.0000(4) 0.0006(4)
O1 O2- 0.0092(16) 0.0079(16) 0.0036(15) 0.0030(12) 0.0006(12) 0.0003(12)
O2 O2- 0.0077(16) 0.0110(16) 0.0029(15) 0.0007(13) 0.0007(12) -0.0027(12)
O3 O2- 0.0037(15) 0.0089(16) 0.0111(16) 0.0003(12) -0.0032(12) 0.0006(13)
O4 O2- 0.0068(15) 0.0058(16) 0.0112(16) 0.0021(12) -0.0018(12) 0.0007(13)
O5 O2- 0.0101(17) 0.0111(17) 0.0077(17) -0.0018(13) -0.0019(13) 0.0013(13)
O6 O2- 0.0065(15) 0.0067(15) 0.0047(15) -0.0026(12) 0.0013(12) 0.0006(12)
O7 O2- 0.0068(15) 0.0096(16) 0.0023(15) -0.0004(12) -0.0017(12) 0.0012(12)
C1 C2+ 0.005(2) 0.009(2) 0.003(2) -0.0003(16) 0.0026(16) 0.0003(16)
Na1 Na1+ 0.0067(9) 0.0129(10) 0.0059(9) -0.0036(7) -0.0014(7) 0.0030(7)
#End of data_262907-ICSD


