data_29557-ICSD
#?2014 by Fachinformationszentrum Karlsruhe, and the U.S. Secretary of 
#Commerce on behalf of the United States.  All rights reserved.
_database_code_ICSD                29557
_audit_creation_date               1988/05/17
_audit_update_record               2014/08/01
_chemical_name_systematic
;
Calcium Magnesium Tris(carbonato)dioxouranate Dodecahydrate
;
_chemical_formula_structural       'Ca Mg ((U O2) (C O3)3) (H2 O)12'
_chemical_formula_sum              'C3 H24 Ca1 Mg1 O23 U1'
_chemical_name_mineral             Swartzite
_publ_section_title
;
Synthetic swartzite, Ca Mg (U O2 (C O3)3) (H2 O)12, and its strontium 
analogue, Sr Mg (U O2 (C O3)3) (H2 O)12 : Crystallography and crystal 
structures
;
loop_
_citation_id
_citation_journal_abbrev
_citation_year
_citation_journal_volume
_citation_page_first
_citation_page_last
_citation_journal_id_ASTM
primary 'Neues Jahrbuch fuer Mineralogie. Monatshefte (Band=Jahr) (1950-)'
 1986 1986 481 492 NJMMAW
_publ_author_name                  'Mereiter, K.'
_cell_length_a                     11.080(2)
_cell_length_b                     14.634(2)
_cell_length_c                     6.439(1)
_cell_angle_alpha                  90.
_cell_angle_beta                   99.43(1)
_cell_angle_gamma                  90.
_cell_volume                       1029.94
_cell_formula_units_Z              2
_symmetry_space_group_name_H-M     'P 1 21/m 1'
_symmetry_Int_Tables_number        11
_refine_ls_R_factor_all            .023
loop_
_symmetry_equiv_pos_site_id
_symmetry_equiv_pos_as_xyz
  1	'x, -y+.5, z'
  2	'-x, -y, -z'
  3	'-x, y+.5, -z'
  4	'x, y, z'
loop_
_atom_type_symbol
_atom_type_oxidation_number
C4+	4
Ca2+	2
H1+	1
Mg2+	2
O2-	-2
U6+	6
loop_
_atom_site_label
_atom_site_type_symbol
_atom_site_symmetry_multiplicity
_atom_site_Wyckoff_symbol
_atom_site_fract_x
_atom_site_fract_y
_atom_site_fract_z
_atom_site_occupancy
_atom_site_attached_hydrogens
_atom_site_B_iso_or_equiv
Ca1 Ca2+ 2 e 0.58193(7) 0.25 0.7741(1) 1. 0 0 
Mg1 Mg2+ 2 a 0 0 0 1. 0 0 
U1 U6+ 2 e 0.21979(1) 0.25 0.55092(2) 1. 0 0 
O1 O2- 2 e 0.2293(4) 0.25 0.2781(5) 1. 0 0 
O2 O2- 2 e 0.2090(3) 0.25 0.8250(5) 1. 0 0 
C1 C4+ 2 e -.0435(4) 0.25 0.4495(7) 1. 0 0 
O3 O2- 4 f 0.0194(2) 0.1760(2) 0.4866(5) 1. 0 0 
O4 O2- 2 e -.1570(3) 0.25 0.3857(6) 1. 0 0 
C2 C4+ 4 f 0.3541(3) 0.0818(2) 0.6352(5) 1. 0 0 
O5 O2- 4 f 0.2370(2) 0.0827(2) 0.5678(4) 1. 0 0 
O6 O2- 4 f 0.4049(2) 0.1617(1) 0.6391(4) 1. 0 0 
O7 O2- 4 f 0.4129(2) 0.0107(2) 0.6934(4) 1. 0 0 
O8 O2- 2 e 0.4917(5) 0.25 0.0944(8) 1. 0 0 
O9 O2- 2 e 0.7912(3) 0.25 0.9522(6) 1. 0 0 
O10 O2- 4 f 0.6237(2) 0.0824(2) 0.9240(5) 1. 0 0 
O11 O2- 4 f 0.6517(3) 0.1553(2) 0.5048(6) 1. 0 0 
O12 O2- 4 f -.0826(3) 0.0323(2) 0.2526(4) 1. 0 0 
O13 O2- 4 f 0.1683(2) -.0033(2) 0.1830(5) 1. 0 0 
O14 O2- 4 f 0.0198(3) 0.1382(2) -.0486(5) 1. 0 0 
H1 H1+ 2 e 0.405 0.25 0.095 1. 0 7.2 
H2 H1+ 2 e 0.533 0.25 0.238 1. 0 7.2 
H3 H1+ 2 e 0.809 0.25 0.103 1. 0 7.2 
H4 H1+ 2 e 0.868 0.25 0.9 1. 0 7.2 
H5 H1+ 4 f 0.561 0.052 0.83 1. 0 4.8 
H6 H1+ 4 f 0.625 0.058 0.063 1. 0 4.8 
H7 H1+ 4 f 0.734 0.167 0.482 1. 0 4.8 
H8 H1+ 4 f 0.628 0.096 0.45 1. 0 4.8 
H9 H1+ 4 f -.056 0.083 0.343 1. 0 4.8 
H10 H1+ 4 f -.135 -.005 0.322 1. 0 4.8 
H11 H1+ 4 f 0.197 0.019 0.323 1. 0 4.8 
H12 H1+ 4 f 0.236 -.032 0.133 1. 0 4.8 
H13 H1+ 4 f 0.099 0.163 0.004 1. 0 7.2 
H14 H1+ 4 f 0.002 0.15 -.197 1. 0 7.2 

loop_
_atom_site_aniso_label
_atom_site_aniso_type_symbol
_atom_site_aniso_U_11
_atom_site_aniso_U_22
_atom_site_aniso_U_33
_atom_site_aniso_U_12
_atom_site_aniso_U_13
_atom_site_aniso_U_23
Ca1 Ca2+ 0.0150(4) 0.0250(4) 0.0240(4) 0 0.0010(4) 0
Mg1 Mg2+ 0.0200(7) 0.0240(7) 0.0250(7) -.0010(7) 0.0040(7) 0.0000(7)
U1 U6+ 0.0120(1) 0.0180(1) 0.0140(1) 0 0.0020(1) 0
O1 O2- 0.037(2) 0.051(2) 0.019(2) 0 0.006(2) 0
O2 O2- 0.029(2) 0.046(2) 0.018(2) 0 0.006(2) 0
C1 C4+ 0.016(2) 0.026(2) 0.024(2) 0 0.002(2) 0
O3 O2- 0.020(1) 0.022(1) 0.072(1) 0.000(1) -.008(1) -.002(1)
O4 O2- 0.017(2) 0.038(2) 0.043(2) 0 0.003(2) 0
C2 C4+ 0.021(1) 0.020(1) 0.027(1) -.001(1) 0.002(1) 0.000(1)
O5 O2- 0.018(1) 0.021(1) 0.040(1) -.003(1) 0.000(1) -.002(1)
O6 O2- 0.017(1) 0.021(1) 0.041(1) -.001(1) 0.000(1) 0.001(1)
O7 O2- 0.026(1) 0.021(1) 0.048(1) 0.003(1) 0.001(1) 0.002(1)
O8 O2- 0.045(3) 0.087(3) 0.037(3) 0 0.016(3) 0
O9 O2- 0.026(2) 0.055(2) 0.044(2) 0 -.002(2) 0
O10 O2- 0.026(1) 0.047(1) 0.040(1) -.003(1) 0.001(1) 0.010(1)
O11 O2- 0.057(2) 0.036(2) 0.073(2) -.020(2) 0.042(2) -.024(2)
O12 O2- 0.043(1) 0.035(1) 0.034(1) -.014(1) 0.018(1) -.009(1)
O13 O2- 0.027(2) 0.077(2) 0.044(2) 0.012(2) -.008(2) -.024(2)
O14 O2- 0.055(2) 0.029(2) 0.053(2) -.007(2) 0.015(2) 0.007(2)
#End of data_29557-ICSD


