data_109850-ICSD
#?2014 by Fachinformationszentrum Karlsruhe, and the U.S. Secretary of 
#Commerce on behalf of the United States.  All rights reserved.
_database_code_ICSD                109850
_audit_creation_date               2008/02/01
_audit_update_record               2008/08/01
_chemical_name_systematic
;
Tripotassium Dioxalatodioxovanadate Trihydrate
;
_chemical_formula_structural       'K3 (V O2 (C2 O4)2) (H2 O)3'
_chemical_formula_sum              'C4 H6 K3 O13 V1'
_publ_section_title
;
The crystal structure of potassium bis(oxalato)oxoperoxovanadate(V) 
hemihydrate, K3 (V O (O2) (C2 O4)2) * 1/2(H2 O), etc.
;
loop_
_citation_id
_citation_journal_abbrev
_citation_year
_citation_journal_volume
_citation_page_first
_citation_page_last
_citation_journal_id_ASTM
primary 'Acta Chemica Scandinavica, Series A: (28,1974-)'
 1986 40 168 176 ACAPCT
_publ_author_name                  'Stomberg, R.'
_cell_length_a                     11.604(3)
_cell_length_b                     7.854(3)
_cell_length_c                     7.794(2)
_cell_angle_alpha                  110.01(2)
_cell_angle_beta                   94.17(2)
_cell_angle_gamma                  91.34(2)
_cell_volume                       664.8
_cell_formula_units_Z              2
_symmetry_space_group_name_H-M     'P -1'
_symmetry_Int_Tables_number        2
_refine_ls_R_factor_all            .043
loop_
_symmetry_equiv_pos_site_id
_symmetry_equiv_pos_as_xyz
  1	'-x, -y, -z'
  2	'x, y, z'
loop_
_atom_type_symbol
_atom_type_oxidation_number
C3+	3
H1+	1
K1+	1
O2-	-2
V5+	5
loop_
_atom_site_label
_atom_site_type_symbol
_atom_site_symmetry_multiplicity
_atom_site_Wyckoff_symbol
_atom_site_fract_x
_atom_site_fract_y
_atom_site_fract_z
_atom_site_occupancy
_atom_site_attached_hydrogens
_atom_site_B_iso_or_equiv
V1 V5+ 2 i 0.29262(3) -0.18585(4) 0.15474(4) 1. 0 1.824(7) 
K1 K1+ 2 i 0.47937(4) -0.72509(7) 0.57118(7) 1. 0 2.88(1) 
K2 K1+ 2 i 0.22804(4) -0.73135(6) 0.15926(6) 1. 0 2.42(1) 
K3 K1+ 2 i 0.17270(4) 0.03270(7) 0.58814(6) 1. 0 2.76(1) 
O1 O2- 2 i 0.3519(1) -0.0068(2) 0.3167(2) 1. 0 2.79(4) 
O2 O2- 2 i 0.4297(1) -0.2954(2) 0.0205(2) 1. 0 2.45(4) 
O3 O2- 2 i 0.1805(1) -0.3679(2) -0.0873(2) 1. 0 2.57(3) 
O4 O2- 2 i 0.1366(1) -0.0857(2) 0.1927(2) 1. 0 2.22(3) 
O5 O2- 2 i 0.2860(1) -0.3413(2) 0.2515(2) 1. 0 2.89(4) 
O6 O2- 2 i 0.3017(1) -0.0600(2) -0.0517(2) 1. 0 2.51(4) 
O7 O2- 2 i -0.0036(1) -0.4003(2) -0.2069(2) 1. 0 3.05(4) 
O8 O2- 2 i -0.0526(1) -0.1287(3) 0.1107(2) 1. 0 3.14(4) 
O9 O2- 2 i 0.3769(2) -0.0983(3) -0.3173(3) 1. 0 3.97(6) 
O10 O2- 2 i 0.5240(1) -0.3410(2) -0.2296(3) 1. 0 2.91(4) 
C1 C3+ 2 i 0.0756(2) -0.3282(2) -0.0863(2) 1. 0 2.03(4) 
C2 C3+ 2 i 0.0475(2) -0.1683(3) 0.0855(2) 1. 0 2.03(4) 
C3 C3+ 2 i 0.3702(2) -0.1288(3) -0.1732(3) 1. 0 2.11(4) 
C4 C3+ 2 i 0.4501(2) -0.2669(2) -0.1285(3) 1. 0 2.08(4) 
O11 O2- 2 i 0.3196(2) -0.6810(2) -0.1557(3) 1. 0 3.11(4) 
O12 O2- 2 i 0.2648(2) -0.5194(3) 0.5270(3) 1. 0 3.88(5) 
O13 O2- 2 i -0.0024(2) -0.7460(3) 0.5136(3) 1. 0 3.85(5) 
H1 H1+ 2 i 0.377(4) -0.646(7) -0.094(7) 1. 0 4.1(11) 
H2 H1+ 2 i 0.286(4) -0.592(6) -0.136(5) 1. 0 2.4(8) 
H3 H1+ 2 i 0.224(4) -0.486(7) 0.627(7) 1. 0 4.8(11) 
H4 H1+ 2 i 0.265(4) -0.414(7) 0.478(7) 1. 0 4.8(12) 
H5 H1+ 2 i 0.0004(4) -0.717(6) 0.420(6) 1. 0 3.5(9) 
H6 H1+ 2 i -0.005(4) -0.655(6) 0.605(6) 1. 0 3.0(9) 

#End of data_109850-ICSD


