data_260275-ICSD
#?2014 by Fachinformationszentrum Karlsruhe, and the U.S. Secretary of 
#Commerce on behalf of the United States.  All rights reserved.
_database_code_ICSD                260275
_audit_creation_date               2009/08/01
_chemical_name_systematic
;
Lithium Tris(trifluoromethyl-isobutylate)
;
_chemical_formula_structural       '(Al (O C (C F3)3)4) Li (H2 O)4'
_chemical_formula_sum              'C16 H8 Al1 F36 Li1 O8'
_publ_section_title
;
Snapshots of the Hydrolysis of the lithium alkoxide Li [O C (C F3)3]
;
loop_
_citation_id
_citation_journal_abbrev
_citation_year
_citation_journal_volume
_citation_journal_issue
_citation_page_first
_citation_page_last
_citation_journal_id_ASTM
primary 'Zeitschrift fuer Anorganische und Allgemeine Chemie (1950) (DE)'
 2009 635 3 513 517 ZAACAB
_publ_author_name
;
Raabe, I.;Wagner, K.;Santiso-Quinones, G.;Krossing, I.
;
_cell_length_a                     13.2710(3)
_cell_length_b                     13.2710(3)
_cell_length_c                     9.2572(2)
_cell_angle_alpha                  90.00
_cell_angle_beta                   90.00
_cell_angle_gamma                  90.00
_cell_volume                       1630.37
_cell_formula_units_Z              2
_symmetry_space_group_name_H-M     'I -4'
_symmetry_Int_Tables_number        82
_refine_ls_R_factor_all            .0235
loop_
_symmetry_equiv_pos_site_id
_symmetry_equiv_pos_as_xyz
  1	'-y, x, -z'
  2	'y, -x, -z'
  3	'-x, -y, z'
  4	'x, y, z'
  5	'-y+.5, x+.5, -z+.5'
  6	'y+.5, -x+.5, -z+.5'
  7	'-x+.5, -y+.5, z+.5'
  8	'x+.5, y+.5, z+.5'
loop_
_atom_type_symbol
_atom_type_oxidation_number
Al3+	3
C2.5+	2.5
F1-	-1
H1+	1
Li1+	1
O2-	-2
loop_
_atom_site_label
_atom_site_type_symbol
_atom_site_symmetry_multiplicity
_atom_site_Wyckoff_symbol
_atom_site_fract_x
_atom_site_fract_y
_atom_site_fract_z
_atom_site_occupancy
_atom_site_attached_hydrogens
_atom_site_U_iso_or_equiv
Al1 Al3+ 2 a 0.0000 0.0000 0.0000 1 0 0.01385(15) 
F1 F1- 8 g 0.25664(7) -0.04247(8) 0.35393(11) 1 0 0.0343(2) 
F2 F1- 8 g 0.12818(8) -0.10381(7) 0.24376(12) 1 0 0.0344(2) 
F3 F1- 8 g 0.10802(8) 0.01036(9) 0.40491(11) 1 0 0.0416(3) 
F4 F1- 8 g 0.25379(8) 0.16466(8) 0.36043(13) 1 0 0.0410(3) 
F5 F1- 8 g 0.10005(7) 0.20018(7) 0.30664(12) 1 0 0.0359(2) 
F6 F1- 8 g 0.21849(7) 0.23623(7) 0.15873(13) 1 0 0.0373(3) 
F7 F1- 8 g 0.35273(7) 0.06327(8) 0.14455(13) 1 0 0.0375(2) 
F8 F1- 8 g 0.26010(9) 0.09527(9) -0.04053(12) 1 0 0.0428(3) 
F9 F1- 8 g 0.26877(7) -0.05498(7) 0.04282(12) 1 0 0.0337(2) 
O1 O2- 8 g 0.08700(7) 0.06648(7) 0.10136(11) 1 0 0.0187(2) 
C1 C2.5+ 8 g 0.17308(10) 0.06281(10) 0.17909(16) 1 0 0.0175(3) 
C2 C2.5+ 8 g 0.16669(11) -0.01964(12) 0.29725(17) 1 0 0.0245(3) 
C3 C2.5+ 8 g 0.18692(11) 0.16748(11) 0.25281(19) 1 0 0.0267(3) 
C4 C2.5+ 8 g 0.26535(12) 0.04193(12) 0.08076(18) 1 0 0.0254(3) 
Li1 Li1+ 2 c 0.0000 0.5000 0.2500 1 0 0.0335(12) 
O2 O2- 8 g 0.11561(12) 0.46174(14) 0.1366(2) 1 0 0.0480(4) 
H1 H1+ 8 g 0.125(4) 0.419(4) 0.097(6) 1 0 0.14(2) 
H2 H1+ 8 g 0.146(4) 0.497(4) 0.101(6) 1 0 0.15(2) 

loop_
_atom_site_aniso_label
_atom_site_aniso_type_symbol
_atom_site_aniso_U_11
_atom_site_aniso_U_22
_atom_site_aniso_U_33
_atom_site_aniso_U_12
_atom_site_aniso_U_13
_atom_site_aniso_U_23
Al1 Al3+ 0.0138(2) 0.0138(2) 0.0139(4) 0.000 0.000 0.000
F1 F1- 0.0296(5) 0.0378(5) 0.0356(5) 0.0057(4) -0.0132(4) 0.0073(5)
F2 F1- 0.0336(5) 0.0235(4) 0.0461(6) -0.0057(4) -0.0088(4) 0.0105(4)
F3 F1- 0.0423(6) 0.0549(7) 0.0277(5) 0.0112(5) 0.0120(5) 0.0105(5)
F4 F1- 0.0415(6) 0.0367(5) 0.0449(6) 0.0038(4) -0.0247(5) -0.0166(5)
F5 F1- 0.0332(5) 0.0347(5) 0.0397(6) 0.0108(4) -0.0047(4) -0.0182(4)
F6 F1- 0.0341(5) 0.0205(4) 0.0574(7) -0.0068(4) -0.0099(5) 0.0017(5)
F7 F1- 0.0156(4) 0.0412(6) 0.0557(7) -0.0035(4) 0.0008(4) -0.0049(5)
F8 F1- 0.0404(6) 0.0535(6) 0.0345(6) 0.0062(5) 0.0151(5) 0.0133(5)
F9 F1- 0.0269(5) 0.0325(5) 0.0416(6) 0.0068(4) 0.0024(4) -0.0128(4)
O1 O2- 0.0166(5) 0.0178(4) 0.0217(5) 0.0003(4) -0.0057(4) -0.0021(4)
C1 C2.5+ 0.0146(6) 0.0181(6) 0.0197(7) 0.0003(5) -0.0015(5) -0.0019(5)
C2 C2.5+ 0.0211(7) 0.0276(7) 0.0248(7) 0.0016(6) -0.0015(6) 0.0042(6)
C3 C2.5+ 0.0236(7) 0.0239(7) 0.0328(8) 0.0014(5) -0.0101(6) -0.0076(7)
C4 C2.5+ 0.0204(7) 0.0279(7) 0.0279(8) 0.0021(6) 0.0037(6) -0.0008(6)
Li1 Li1+ 0.0327(17) 0.0327(17) 0.035(3) 0.000 0.000 0.000
O2 O2- 0.0428(8) 0.0430(8) 0.0582(9) -0.0111(7) 0.0180(7) -0.0146(7)
#End of data_260275-ICSD


