data_261408-ICSD
#?2014 by Fachinformationszentrum Karlsruhe, and the U.S. Secretary of 
#Commerce on behalf of the United States.  All rights reserved.
_database_code_ICSD                261408
_audit_creation_date               2011/08/01
_chemical_name_systematic
;
Dipotassium Terbium Tetraaqua Bis(tetracyanoplatinate(II)) Dicyano 
Gold Dihydrate
;
_chemical_formula_structural
;
K2 (Tb (H2 O)4 (Pt (C N)4)2) Au (C N)2 (H2 O)2
;
_chemical_formula_sum              'C10 H12 Au1 K2 N10 O6 Pt2 Tb1'
_publ_section_title
;
Solid-state photoluminescence sensitization of Tb(3+) by novel Au2 
Pt2 and Au2 Pt4 cyanide clusters
;
loop_
_citation_id
_citation_journal_abbrev
_citation_year
_citation_journal_volume
_citation_journal_issue
_citation_page_first
_citation_page_last
_citation_journal_id_ASTM
primary 'Inorganic Chemistry' 2011 50 6 2199 2206 INOCAJ
_publ_author_name
;
Ladner, L.;Ngo Tu;Crawford, C.;Assefa, Z.;Sykora, R.E.
;
_cell_length_a                     11.97056(14)
_cell_length_b                     11.97056(14)
_cell_length_c                     17.8224(3)
_cell_angle_alpha                  90.00
_cell_angle_beta                   90.00
_cell_angle_gamma                  90.00
_cell_volume                       2553.85
_cell_formula_units_Z              4
_symmetry_space_group_name_H-M     'P 42/n n m Z'
_symmetry_Int_Tables_number        134
_refine_ls_R_factor_all            .0185
loop_
_symmetry_equiv_pos_site_id
_symmetry_equiv_pos_as_xyz
  1	'y, x, -z'
  2	'y+.5, -x, -z+.5'
  3	'-y, x+.5, -z+.5'
  4	'-y+.5, -x+.5, -z'
  5	'-y, -x, z'
  6	'-y+.5, x, z+.5'
  7	'y, -x+.5, z+.5'
  8	'y+.5, x+.5, z'
  9	'x+.5, y+.5, -z'
 10	'-x+.5, y, -z+.5'
 11	'x, -y+.5, -z+.5'
 12	'-x, -y, -z'
 13	'-x+.5, -y+.5, z'
 14	'x+.5, -y, z+.5'
 15	'-x, y+.5, z+.5'
 16	'x, y, z'
loop_
_atom_type_symbol
_atom_type_oxidation_number
Au1+	1
C2+	2
H1+	1
K1+	1
N3-	-3
O2-	-2
Pt2+	2
Tb3+	3
loop_
_atom_site_label
_atom_site_type_symbol
_atom_site_symmetry_multiplicity
_atom_site_Wyckoff_symbol
_atom_site_fract_x
_atom_site_fract_y
_atom_site_fract_z
_atom_site_occupancy
_atom_site_attached_hydrogens
_atom_site_U_iso_or_equiv
K1 K1+ 4 f 0.5000 0.0000 0.5000 1 0 0.0354(6) 
K2 K1+ 4 g 0.7500 0.2500 0.63892(15) 1 0 0.0512(7) 
Tb1 Tb3+ 4 c 0.7500 0.7500 0.2500 1 0 0.01459(12) 
Pt1 Pt2+ 8 m 0.586007(15) 0.413993(15) 0.436147(13) 1 0 0.01720(10) 
Au1 Au1+ 4 g 0.7500 0.2500 0.33964(2) 1 0 0.02680(12) 
C1 C2+ 16 n 0.6352(4) 0.5325(4) 0.3654(3) 1 0 0.0216(11) 
C2 C2+ 16 n 0.5396(4) 0.2974(4) 0.5084(3) 1 0 0.0252(11) 
C3 C2+ 8 m 0.8670(5) 0.3670(5) 0.3422(4) 1 0 0.0253(16) 
N1 N3- 16 n 0.6680(4) 0.5989(4) 0.3256(2) 1 0 0.0287(10) 
N2 N3- 16 n 0.5181(5) 0.2286(4) 0.5511(3) 1 0 0.0414(13) 
N3 N3- 8 m 0.9348(4) 0.4348(4) 0.3463(4) 1 0 0.0355(16) 
O1 O2- 16 n 0.9020(3) 0.8286(3) 0.18050(19) 1 0 0.0307(9) 
H1 H1+ 16 n 0.9312 0.8050 0.1400 1 0 0.046 
H2 H1+ 16 n 0.9052 0.8986 0.1726 1 0 0.046 
O2 O2- 8 m 0.8762(4) 0.1238(4) 0.7343(4) 1 0 0.073(2) 
H3 H1+ 16 n 0.9371 0.1359 0.7573 1 0 0.110 

loop_
_atom_site_aniso_label
_atom_site_aniso_type_symbol
_atom_site_aniso_U_11
_atom_site_aniso_U_22
_atom_site_aniso_U_33
_atom_site_aniso_U_12
_atom_site_aniso_U_13
_atom_site_aniso_U_23
K1 K1+ 0.0378(9) 0.0378(9) 0.0307(12) -0.0096(12) -0.0012(7) -0.0012(7)
K2 K1+ 0.0567(12) 0.0567(12) 0.0401(14) 0.0114(16) 0.000 0.000
Tb1 Tb3+ 0.0176(2) 0.0128(2) 0.0134(2) 0.000 0.000 0.000
Pt1 Pt2+ 0.01830(12) 0.01830(12) 0.01502(14) -0.00361(11) -0.00269(7) 
0.00269(7)
Au1 Au1+ 0.02426(15) 0.02426(15) 0.0319(2) -0.00065(19) 0.000 0.000
C1 C2+ 0.023(3) 0.022(3) 0.020(2) 0.000(2) -0.004(2) 0.002(2)
C2 C2+ 0.026(3) 0.029(3) 0.021(2) -0.002(2) 0.001(2) -0.004(2)
C3 C2+ 0.022(2) 0.022(2) 0.032(4) 0.001(3) -0.002(2) -0.002(2)
N1 N3- 0.031(3) 0.026(3) 0.029(2) -0.001(2) 0.003(2) 0.008(2)
N2 N3- 0.061(4) 0.030(3) 0.033(2) -0.008(2) 0.014(2) 0.010(2)
N3 N3- 0.029(2) 0.029(2) 0.049(4) -0.003(3) -0.003(2) -0.003(2)
O1 O2- 0.038(2) 0.0233(19) 0.0312(19) -0.0023(17) 0.0191(17) -0.0032(16)
O2 O2- 0.060(3) 0.060(3) 0.100(6) 0.006(4) -0.021(3) 0.021(3)
#End of data_261408-ICSD


