data_109990-ICSD
#?2014 by Fachinformationszentrum Karlsruhe, and the U.S. Secretary of 
#Commerce on behalf of the United States.  All rights reserved.
_database_code_ICSD                109990
_audit_creation_date               2008/02/01
_audit_update_record               2011/02/01
_chemical_name_systematic          'Magnesium Diformate - Urea (1/2)'
_chemical_formula_structural       '(Mg (H C O O)2) (C O (N H2)2)2'
_chemical_formula_sum              'C4 H10 Mg1 N4 O6'
_publ_section_title
;
Determination of the crystal structure of Mg (H C O O)2 * 2(N H2) 2(C 
O) by Multan 84
;
loop_
_citation_id
_citation_journal_abbrev
_citation_year
_citation_journal_volume
_citation_page_first
_citation_page_last
_citation_journal_id_ASTM
primary 'Kyoto Daigaku Genshiro Jikkensho Gakujutsu Koenkai Koen Yoshishu'
 1991 25 13 20 KDGYDY
2 'Japanese Journal of Applied Physics, Part 1' 1992 31 3559 3563 JAPNDE
_publ_author_name
;
Koyano, N.;Ridwan, M.;Iwata, Y.;Fukui, S.;Shibuya, I.
;
_cell_length_a                     17.094(2)
_cell_length_b                     16.842(1)
_cell_length_c                     15.198(2)
_cell_angle_alpha                  90
_cell_angle_beta                   123.00(6)
_cell_angle_gamma                  90
_cell_volume                       3669.57
_cell_formula_units_Z              16
_symmetry_space_group_name_H-M     'C 1 2/c 1'
_symmetry_Int_Tables_number        15
_refine_ls_R_factor_all            .033
loop_
_symmetry_equiv_pos_site_id
_symmetry_equiv_pos_as_xyz
  1	'x, -y, z+.5'
  2	'-x, -y, -z'
  3	'-x, y, -z+.5'
  4	'x, y, z'
  5	'x+.5, -y+.5, z+.5'
  6	'-x+.5, -y+.5, -z'
  7	'-x+.5, y+.5, -z+.5'
  8	'x+.5, y+.5, z'
loop_
_atom_type_symbol
_atom_type_oxidation_number
C4+	4
H1-	-1
H1+	1
Mg2+	2
N3-	-3
O2-	-2
loop_
_atom_site_label
_atom_site_type_symbol
_atom_site_symmetry_multiplicity
_atom_site_Wyckoff_symbol
_atom_site_fract_x
_atom_site_fract_y
_atom_site_fract_z
_atom_site_occupancy
_atom_site_attached_hydrogens
O1 O2- 8 f 0.33741(9) 0.96473(7) 0.66157(9) 1. 0 
O2 O2- 8 f 0.14002(9) 1.01030(8) 0.34514(9) 1. 0 
O3 O2- 8 f 0.14583(9) 0.94604(7) 0.5223(1) 1. 0 
O4 O2- 8 f 0.27510(8) 0.88323(7) 0.4610(1) 1. 0 
O5 O2- 8 f 0.22171(9) 1.10799(7) 0.5392(1) 1. 0 
O6 O2- 8 f 0.35623(9) 1.04146(7) 0.4998(1) 1. 0 
O7 O2- 8 f -0.06015(9) 0.71646(8) 0.34607(9) 1. 0 
O8 O2- 8 f 0.04500(9) 0.76361(8) 0.66071(9) 1. 0 
O9 O2- 8 f 0.13276(8) 1.20481(7) 0.53853(9) 1. 0 
O10 O2- 8 f 0.45735(9) 1.13423(7) 0.5225(1) 1. 0 
O11 O2- 8 f 0.03912(9) 0.85879(7) 0.4975(1) 1. 0 
O12 O2- 8 f 0.37321(9) 0.79691(7) 0.4600(1) 1. 0 
N1 N3- 8 f 0.4483(2) 0.9644(1) 0.8335(1) 1. 0 
N2 N3- 8 f 0.3983(1) 1.0807(1) 0.7457(1) 1. 0 
N3 N3- 8 f 0.0520(1) 1.0287(1) 0.1706(1) 1. 0 
N4 N3- 8 f 0.2097(1) 1.0255(1) 0.2555(1) 1. 0 
N5 N3- 8 f 0.1258(1) 0.7703(1) 0.8359(1) 1. 0 
N6 N3- 8 f 0.2024(1) 0.7613(1) 0.7522(1) 1. 0 
N7 N3- 8 f -0.1561(1) 0.7140(1) 0.1704(1) 1. 0 
N8 N3- 8 f -0.1141(1) 0.8317(1) 0.2570(1) 1. 0 
C1 C4+ 8 f 0.3933(1) 1.0024(1) 0.7435(1) 1. 0 
C2 C4+ 8 f 0.1350(1) 1.0222(1) 0.2610(1) 1. 0 
C3 C4+ 8 f 0.1024(1) 0.8835(1) 0.4876(2) 1. 0 
C4 C4+ 8 f 0.3513(1) 0.8617(1) 0.4770(2) 1. 0 
C5 C4+ 8 f 0.1222(1) 0.7652(1) 0.7464(1) 1. 0 
C6 C4+ 8 f -0.1080(1) 0.7530(1) 0.2611(1) 1. 0 
C7 C4+ 8 f 0.1500(1) 1.1346(1) 0.5290(2) 1. 0 
C8 C4+ 8 f 0.3794(1) 1.1102(1) 0.4942(2) 1. 0 
H1 H1+ 8 f 0.447(2) 0.916(2) 0.830(2) 1. 0 
H2 H1+ 8 f 0.491(2) 0.984(2) 0.881(2) 1. 0 
H3 H1+ 8 f 0.362(2) 1.108(2) 0.692(2) 1. 0 
H4 H1+ 8 f 0.432(2) 1.105(2) 0.799(2) 1. 0 
H5 H1+ 8 f 0.005(2) 1.026(1) 0.175(2) 1. 0 
H6 H1+ 8 f 0.052(2) 1.045(2) 0.125(2) 1. 0 
H7 H1+ 8 f 0.204(2) 1.036(1) 0.200(2) 1. 0 
H8 H1+ 8 f 0.261(2) 1.024(2) 0.309(2) 1. 0 
H9 H1+ 8 f 0.113(2) 0.850(2) 0.442(2) 1. 0 
H10 H1+ 8 f 0.402(3) 0.897(2) 0.512(3) 1. 0 
H11 H1+ 8 f 0.173(2) 0.772(2) 0.887(2) 1. 0 
H12 H1+ 8 f 0.073(2) 0.773(2) 0.832(2) 1. 0 
H13 H1+ 8 f 0.254(2) 0.752(2) 0.813(2) 1. 0 
H14 H1+ 8 f 0.201(2) 0.751(2) 0.699(2) 1. 0 
H15 H1+ 8 f -0.187(2) 0.737(2) 0.120(2) 1. 0 
H16 H1+ 8 f -0.152(2) 0.665(2) 0.175(2) 1. 0 
H17 H1- 8 f -0.086(2) 0.855(1) 0.309(2) 1. 0 
H18 H1- 8 f -0.148(2) 0.853(1) 0.202(2) 1. 0 
H19 H1- 8 f 0.101(2) 1.098(2) 0.515(2) 1. 0 
H20 H1- 8 f 0.327(2) 1.146(2) 0.460(3) 1. 0 
Mg1 Mg2+ 8 f 0.24638(5) 0.99391(3) 0.50334(4) 1. 0 
Mg2 Mg2+ 8 f -0.00322(4) 0.74559(3) 0.50318(4) 1. 0 

#End of data_109990-ICSD


