data_280483-ICSD
#?2014 by Fachinformationszentrum Karlsruhe, and the U.S. Secretary of 
#Commerce on behalf of the United States.  All rights reserved.
_database_code_ICSD                280483
_audit_creation_date               2002/04/01
_chemical_name_systematic
;
Disodium Tetracyanoniccolate Trihydrate
;
_chemical_formula_structural       'Na2 (Ni (C N)4) (H2 O)3'
_chemical_formula_sum              'C4 H6 N4 Na2 Ni1 O3'
_publ_section_title
;
Structure, charge and spin density in Na2 Ni (C N)4 * 3(H2 O) at 295 
and 30K
;
loop_
_citation_id
_citation_journal_abbrev
_citation_year
_citation_journal_volume
_citation_page_first
_citation_page_last
_citation_journal_id_ASTM
primary 'Acta Crystallographica, Section B: Structural Science'
 1998 54 600 612 ASBSDK
_publ_author_name
;
Ptasiewicz Bak, H.;Olovsson, I.;McIntyre, G.J.
;
_cell_length_a                     7.320(2)
_cell_length_b                     8.902(2)
_cell_length_c                     15.204(4)
_cell_angle_alpha                  89.333(6)
_cell_angle_beta                   87.336(7)
_cell_angle_gamma                  83.621(6)
_cell_volume                       983.51
_cell_formula_units_Z              4
_symmetry_space_group_name_H-M     'P -1'
_symmetry_Int_Tables_number        2
_refine_ls_R_factor_all            .0493
loop_
_symmetry_equiv_pos_site_id
_symmetry_equiv_pos_as_xyz
  1	'-x, -y, -z'
  2	'x, y, z'
loop_
_atom_type_symbol
_atom_type_oxidation_number
C2+	2
H1+	1
N3-	-3
Na1+	1
Ni2+	2
O2-	-2
loop_
_atom_site_label
_atom_site_type_symbol
_atom_site_symmetry_multiplicity
_atom_site_Wyckoff_symbol
_atom_site_fract_x
_atom_site_fract_y
_atom_site_fract_z
_atom_site_occupancy
_atom_site_attached_hydrogens
_atom_site_U_iso_or_equiv
Ni1 Ni2+ 2 i 0.24971(10) 0.51153(8) 0.48292(5) 1. 0 0.0046(3) 
Ni2 Ni2+ 2 i 0.25408(10) -.01180(8) 0.01299(5) 1. 0 0.0042(3) 
Na1 Na1+ 2 i 0.1864(3) 0.0758(2) 0.6889(1) 1. 0 0.0077(9) 
Na2 Na1+ 2 i 0.2600(3) 0.4319(2) 0.8071(1) 1. 0 0.0075(9) 
Na3 Na1+ 2 i 0.0468(3) 0.2418(2) 0.2432(1) 1. 0 0.0067(8) 
Na4 Na1+ 1 f 0.5 0 0.5 1. 0 0.0074(9) 
Na5 Na1+ 1 e 0.5 0.5 0 1. 0 0.0072(10) 
O1 O2- 2 i 0.4643(2) 0.6088(2) 0.8558(1) 1. 0 0.0082(6) 
O2 O2- 2 i 0.0059(2) 0.5917(2) 0.8805(1) 1. 0 0.0079(6) 
O3 O2- 2 i 0.4431(2) -.1104(2) 0.6441(1) 1. 0 0.0080(6) 
O4 O2- 2 i -.0327(2) -.0792(2) 0.6310(1) 1. 0 0.0085(6) 
O5 O2- 2 i 0.0067(2) 0.2876(2) 0.7593(1) 1. 0 0.0090(6) 
O6 O2- 2 i 0.4385(2) 0.2231(2) 0.7360(1) 1. 0 0.0083(6) 
C1 C2+ 2 i 0.2290(2) 0.3119(1) 0.5175(1) 1. 0 0.0068(5) 
C2 C2+ 2 i 0.2609(2) 0.4568(1) 0.3643(1) 1. 0 0.0065(5) 
C3 C2+ 2 i 0.2324(2) 0.5669(1) 0.6013(1) 1. 0 0.0067(5) 
C4 C2+ 2 i 0.2775(2) 0.7106(1) 0.4496(1) 1. 0 0.0070(5) 
C5 C2+ 2 i 0.2873(2) 0.1844(1) -.0236(1) 1. 0 0.0069(5) 
C6 C2+ 2 i 0.3089(2) 0.0341(1) 0.1284(1) 1. 0 0.0066(5) 
C7 C2+ 2 i 0.2225(2) -.2119(1) 0.0449(1) 1. 0 0.0066(5) 
C8 C2+ 2 i 0.1973(2) -.0535(1) -.1018(1) 1. 0 0.0064(5) 
N1 N3- 2 i 0.2224(1) 0.1871(1) 0.5409(1) 1. 0 0.0088(4) 
N2 N3- 2 i 0.2630(1) 0.4264(1) 0.2895(1) 1. 0 0.0087(4) 
N3 N3- 2 i 0.2160(1) 0.6020(1) 0.6753(1) 1. 0 0.0085(4) 
N4 N3- 2 i 0.2973(1) 0.8344(1) 0.4278(1) 1. 0 0.0093(4) 
N5 N3- 2 i 0.3093(1) 0.3062(1) -.0486(1) 1. 0 0.0087(3) 
N6 N3- 2 i 0.3402(1) 0.0644(1) 0.2003(1) 1. 0 0.0084(4) 
N7 N3- 2 i 0.2040(1) -.3379(1) 0.0620(1) 1. 0 0.0084(4) 
N8 N3- 2 i 0.1610(1) -.0806(1) -.1737(1) 1. 0 0.0090(4) 
H1 H1+ 2 i 0.5683(4) 0.6015(4) 0.8133(2) 1. 0 0.025(1) 
H2 H1+ 2 i 0.4097(5) 0.7114(3) 0.8518(2) 1. 0 0.030(1) 
H3 H1+ 2 i 0.0401(5) 0.6361(4) 0.9334(2) 1. 0 0.030(1) 
H4 H1+ 2 i -.0818(4) 0.5235(3) 0.9010(2) 1. 0 0.025(1) 
H5 H1+ 2 i 0.5296(4) -.1079(4) 0.6902(2) 1. 0 0.025(1) 
H6 H1+ 2 i 0.4018(5) -.2091(3) 0.6479(2) 1. 0 0.029(1) 
H7 H1+ 2 i -.1348(4) -.0079(3) 0.6155(2) 1. 0 0.026(1) 
H8 H1+ 2 i -.0003(6) -.1327(4) 0.5775(2) 1. 0 0.035(2) 
H9 H1+ 2 i -.0744(5) 0.3604(4) 0.7284(2) 1. 0 0.031(1) 
H10 H1+ 2 i -.0611(5) 0.2698(4) 0.8134(2) 1. 0 0.031(1) 
H11 H1+ 2 i 0.5143(5) 0.2305(4) 0.6832(2) 1. 0 0.029(1) 
H12 H1+ 2 i 0.5115(5) 0.1507(4) 0.7718(2) 1. 0 0.029(1) 

#End of data_280483-ICSD


