data_280789-ICSD
#?2014 by Fachinformationszentrum Karlsruhe, and the U.S. Secretary of 
#Commerce on behalf of the United States.  All rights reserved.
_database_code_ICSD                280789
_audit_creation_date               2002/10/01
_audit_update_record               2005/04/01
_chemical_name_systematic
;
Dipotassium Carbonate Sesquihydrate
;
_chemical_formula_structural       'K2 (C O3) (H2 O)1.5'
_chemical_formula_sum              'C1 H3 K2 O4.5'
_publ_section_title
;
Dipotassium carbonate sesquihydrate: rerefinement against new 
intensity data
;
loop_
_citation_id
_citation_journal_abbrev
_citation_year
_citation_journal_volume
_citation_page_first
_citation_page_last
_citation_journal_id_ASTM
primary 'Acta Crystallographica, Section E. Structure Reports Online'
 2001 57 94 97 ACSEBH
_publ_author_name
;
Skakle, J.M.S.;Wilson, M.;Feldmann, J.
;
_cell_length_a                     11.8175(6)
_cell_length_b                     13.7466(7)
_cell_length_c                     7.1093(4)
_cell_angle_alpha                  90.
_cell_angle_beta                   120.769(1)
_cell_angle_gamma                  90.
_cell_volume                       992.34
_cell_formula_units_Z              8
_symmetry_space_group_name_H-M     'C 1 2/c 1'
_symmetry_Int_Tables_number        15
_refine_ls_R_factor_all            .031
loop_
_symmetry_equiv_pos_site_id
_symmetry_equiv_pos_as_xyz
  1	'x, -y, z+.5'
  2	'-x, -y, -z'
  3	'-x, y, -z+.5'
  4	'x, y, z'
  5	'x+.5, -y+.5, z+.5'
  6	'-x+.5, -y+.5, -z'
  7	'-x+.5, y+.5, -z+.5'
  8	'x+.5, y+.5, z'
loop_
_atom_type_symbol
_atom_type_oxidation_number
C4+	4
H1+	1
K1+	1
O2-	-2
loop_
_atom_site_label
_atom_site_type_symbol
_atom_site_symmetry_multiplicity
_atom_site_Wyckoff_symbol
_atom_site_fract_x
_atom_site_fract_y
_atom_site_fract_z
_atom_site_occupancy
_atom_site_attached_hydrogens
_atom_site_U_iso_or_equiv
K1 K1+ 4 e 0 0.38193(3) 0.25 1. 0 0 
K2 K1+ 4 e 0 0.68676(3) 0.25 1. 0 0 
K3 K1+ 8 f 0.35595(3) 0.349980(19) 0.45736(4) 1. 0 0 
C1 C4+ 8 f 0.1929(1) 0.17350(8) 0.15183(18) 1. 0 0 
O1 O2- 8 f 0.10641(8) 0.22728(7) 0.15315(13) 1. 0 0 
O2 O2- 8 f 0.29732(8) 0.15119(6) 0.33357(15) 1. 0 0 
O3 O2- 8 f 0.17704(10) 0.14186(7) -.03042(15) 1. 0 0 
O4 O2- 4 e 0 -.00112(14) 0.25 1. 0 0 
H4 H1+ 8 f -.057(2) -.0344(17) 0.172(4) 1. 0 0.045(6) 
O5 O2- 8 f 0.14810(11) 0.45886(7) 0.0838(2) 1. 0 0 
H5 H1+ 8 f 0.174(2) 0.5148(18) 0.133(3) 1. 0 0.036(5) 
H6 H1+ 8 f 0.189(3) 0.445(2) 0.046(5) 1. 0 0.054(7) 

loop_
_atom_site_aniso_label
_atom_site_aniso_type_symbol
_atom_site_aniso_U_11
_atom_site_aniso_U_22
_atom_site_aniso_U_33
_atom_site_aniso_U_12
_atom_site_aniso_U_13
_atom_site_aniso_U_23
K1 K1+ 0.01877(16) 0.02370(18) 0.01575(16) 0 0.00789(12) 0
K2 K1+ 0.02508(18) 0.02663(19) 0.01706(17) 0 0.01201(14) 0
K3 K1+ 0.02465(15) 0.02638(16) 0.01752(15) 0.00227(8) 0.00978(11) 
0.00148(8)
C1 C4+ 0.0165(4) 0.0164(4) 0.0141(4) -.0008(3) 0.0073(3) 0.0002(3)
O1 O2- 0.0219(4) 0.0271(4) 0.0212(4) 0.0073(3) 0.0122(3) 0.0044(3)
O2 O2- 0.0173(3) 0.0237(4) 0.0168(4) 0.0021(3) 0.0041(3) 0.0018(3)
O3 O2- 0.0314(4) 0.0335(5) 0.0177(4) 0.0014(4) 0.0127(3) -.0059(3)
O4 O2- 0.0509(10) 0.0249(7) 0.0442(10) 0 0.0007(8) 0
O5 O2- 0.0300(5) 0.0233(5) 0.0412(6) -.0019(3) 0.0221(4) -.0034(4)
#End of data_280789-ICSD


