data_401833-ICSD
#?2014 by Fachinformationszentrum Karlsruhe, and the U.S. Secretary of 
#Commerce on behalf of the United States.  All rights reserved.
_database_code_ICSD                401833
_audit_creation_date               1996/04/22
_audit_update_record               2014/08/01
_chemical_name_systematic
;
Sodium Dipotassium Mue-hydrogenbis(carbonato)-
bis(aquacarbonatozincate)
;
_chemical_formula_structural
;
Na K2 ((Zn (H2 O) (C O3))2 (H (C O3)2))
;
_chemical_formula_sum              'C4 H5 K2 Na1 O14 Zn2'
_publ_section_title
;
Komplexe Alkalimetall-carbonat-hydrogencarbonate mit fuenffach 
koordiniertem Zink: Na A2 (Zn2 (H (C O3)2) (C O3)2 (H2 O)2) mit A= K, 
Rb
;
loop_
_citation_id
_citation_journal_abbrev
_citation_year
_citation_journal_volume
_citation_page_first
_citation_page_last
_citation_journal_id_ASTM
primary 'Zeitschrift fuer Naturforschung, B: Chemical Sciences'
 1995 50 1185 1194 ZNBSEN
_publ_author_name                  'Zheng, Y.-Q.;Adam, A.'
_cell_length_a                     10.579(1)
_cell_length_b                     11.022(1)
_cell_length_c                     5.149(1)
_cell_angle_alpha                  90.
_cell_angle_beta                   92.94(1)
_cell_angle_gamma                  90.
_cell_volume                       599.59
_cell_formula_units_Z              2
_symmetry_space_group_name_H-M     'P 1 21/n 1'
_symmetry_Int_Tables_number        14
_refine_ls_R_factor_all            .052
loop_
_symmetry_equiv_pos_site_id
_symmetry_equiv_pos_as_xyz
  1	'-x+.5, y+.5, -z+.5'
  2	'-x, -y, -z'
  3	'x+.5, -y+.5, z+.5'
  4	'x, y, z'
loop_
_atom_type_symbol
_atom_type_oxidation_number
C4+	4
H1+	1
K1+	1
Na1+	1
O2-	-2
Zn2+	2
loop_
_atom_site_label
_atom_site_type_symbol
_atom_site_symmetry_multiplicity
_atom_site_Wyckoff_symbol
_atom_site_fract_x
_atom_site_fract_y
_atom_site_fract_z
_atom_site_occupancy
_atom_site_attached_hydrogens
_atom_site_U_iso_or_equiv
Zn1 Zn2+ 4 e 0.2053(1) 0.3960(1) 0.5315(1) 1. 0 0 
Na1 Na1+ 2 c 0 0.5 0 1. 0 0 
K1 K1+ 4 e 0.0763(1) 0.1651(1) 0.0363(1) 1. 0 0 
C1 C4+ 4 e 0.3194(2) 0.4241(2) 0.0305(4) 1. 0 0 
C2 C4+ 4 e 0.4351(2) 0.1278(2) 0.0066(4) 1. 0 0 
O1 O2- 4 e 0.2159(1) 0.3844(2) 0.9252(3) 1. 0 0 
O2 O2- 4 e 0.3368(1) 0.4379(1) 0.2750(3) 1. 0 0 
O3 O2- 4 e 0.4090(1) 0.4530(2) 0.8776(3) 1. 0 0 
O4 O2- 4 e 0.0501(2) 0.6682(2) 0.2657(3) 1. 0 0 
O5 O2- 4 e 0.0309(1) 0.3797(1) 0.3607(3) 1. 0 0 
O6 O2- 4 e 0.1737(1) 0.5910(1) 0.5856(3) 1. 0 0 
O7 O2- 4 e 0.2463(2) 0.2121(1) 0.4882(3) 1. 0 0 
H1 H1+ 2 b 0.5 0.5 0 1. 0 0.0089(65) 
H2 H1+ 4 e 0.308(3) 0.187(5) 0.393(7) 1. 0 0.0051(78) 
H3 H1+ 4 e 0.268(3) 0.172(6) 0.630(6) 1. 0 0.0033(79) 

loop_
_atom_site_aniso_label
_atom_site_aniso_type_symbol
_atom_site_aniso_U_11
_atom_site_aniso_U_22
_atom_site_aniso_U_33
_atom_site_aniso_U_12
_atom_site_aniso_U_13
_atom_site_aniso_U_23
Zn1 Zn2+ 0.0129(1) 0.0178(1) 0.0130(1) -.0010(1) 0.0015(1) -.0006(1)
Na1 Na1+ 0.0441(9) 0.0135(6) 0.0080(5) -.0075(6) -.0068(5) 0.0013(5)
K1 K1+ 0.0192(1) 0.0193(2) 0.0248(2) -.0013(2) 0.0004(2) -.0048(2)
C1 C4+ 0.0136(9) 0.0128(9) 0.0134(8) -.0005(7) 0.0011(7) 0.0001(7)
C2 C4+ 0.0119(8) 0.0096(8) 0.0145(8) -.0012(6) 0.0003(7) -.0026(6)
O1 O2- 0.0171(7) 0.0256(9) 0.0151(6) 0.0070(7) -.0014(6) -.0003(6)
O2 O2- 0.0162(7) 0.0185(7) 0.0103(6) 0.0015(6) 0.0021(5) 0.0010(5)
O3 O2- 0.0157(7) 0.0328(10) 0.0134(6) 0.0048(7) 0.0049(6) 0.0017(7)
O4 O2- 0.0206(8) 0.0256(9) 0.0149(7) -.0017(7) -.0003(6) 0.0061(6)
O5 O2- 0.0214(8) 0.0194(8) 0.0167(7) -.0073(6) 0.0037(6) -.0030(6)
O6 O2- 0.0129(7) 0.0205(8) 0.0217(7) 0.0025(6) -.0042(6) -.0042(6)
O7 O2- 0.0123(6) 0.0201(8) 0.0163(6) -.0003(6) 0.0035(5) -.0003(6)
#End of data_401833-ICSD


