data_36006-ICSD
#?2014 by Fachinformationszentrum Karlsruhe, and the U.S. Secretary of 
#Commerce on behalf of the United States.  All rights reserved.
_database_code_ICSD                36006
_audit_creation_date               1982/12/31
_chemical_name_systematic
;
Potassium Cyanodithiocarbiminate Hydrate
;
_chemical_formula_structural       'K2 (S2 C N C N) (H2 O)'
_chemical_formula_sum              'C2 H2 K2 N2 O1 S2'
_publ_section_title
;
Kristallstruktur von Kalium-N-cyanodithiocarbimat-Monohydrat K2 
(S2C=N-CN) * (H2 O)
;
loop_
_citation_id
_citation_journal_abbrev
_citation_year
_citation_journal_volume
_citation_page_first
_citation_page_last
_citation_journal_id_ASTM
primary 'Zeitschrift fuer Anorganische und Allgemeine Chemie (1950) (DE)'
 1982 491 145 153 ZAACAB
_publ_author_name
;
Hlawatschek, H.;Draeger, M.;Gattow, G.
;
_cell_length_a                     10.336(1)
_cell_length_b                     7.862(1)
_cell_length_c                     9.882(1)
_cell_angle_alpha                  90.
_cell_angle_beta                   90.
_cell_angle_gamma                  90.
_cell_volume                       803.03
_cell_formula_units_Z              4
_symmetry_space_group_name_H-M     'P n m a'
_symmetry_Int_Tables_number        62
_refine_ls_R_factor_all            .0287
loop_
_symmetry_equiv_pos_site_id
_symmetry_equiv_pos_as_xyz
  1	'x+.5, y, -z+.5'
  2	'x, -y+.5, z'
  3	'-x+.5, y+.5, z+.5'
  4	'-x, -y, -z'
  5	'-x+.5, -y, z+.5'
  6	'-x, y+.5, -z'
  7	'x+.5, -y+.5, -z+.5'
  8	'x, y, z'
loop_
_atom_type_symbol
_atom_type_oxidation_number
C4+	4
H1+	1
K1+	1
N3-	-3
O2-	-2
S2-	-2
loop_
_atom_site_label
_atom_site_type_symbol
_atom_site_symmetry_multiplicity
_atom_site_Wyckoff_symbol
_atom_site_fract_x
_atom_site_fract_y
_atom_site_fract_z
_atom_site_occupancy
_atom_site_attached_hydrogens
_atom_site_U_iso_or_equiv
K1 K1+ 8 d 0.16507(2) 0.49940(3) -.26656(3) 1. 0 0 
C1 C4+ 4 c -.0659(1) 0.25 -.1139(1) 1. 0 0 
C2 C4+ 4 c 0.0906(1) 0.25 0.0517(1) 1. 0 0 
N1 N3- 4 c 0.0568(1) 0.25 -.0760(1) 1. 0 0 
N2 N3- 4 c 0.1334(1) 0.25 0.1605(1) 1. 0 0 
S1 S2- 4 c -.19280(3) 0.25 -.00139(3) 1. 0 0 
S2 S2- 4 c -.09387(3) 0.25 -.28575(3) 1. 0 0 
O1 O2- 4 c 0.4743(1) 0.25 0.1037(1) 1. 0 0 
H1 H1+ 4 c 0.5002(27) 0.25 0.0229(32) 1. 0 0.050(7) 
H2 H1+ 4 c 0.5237(32) 0.25 0.1353(40) 1. 0 0.075(12) 

loop_
_atom_site_aniso_label
_atom_site_aniso_type_symbol
_atom_site_aniso_U_11
_atom_site_aniso_U_22
_atom_site_aniso_U_33
_atom_site_aniso_U_12
_atom_site_aniso_U_13
_atom_site_aniso_U_23
K1 K1+ 0.0383(1) 0.0271(1) 0.0398(1) -.0028(1) 0.0048(1) -.0009(1)
C1 C4+ 0.0217(3) 0.0248(4) 0.0212(3) 0 0.0013(3) 0
C2 C4+ 0.0250(4) 0.0386(6) 0.0264(4) 0 -.0024(3) 0
N1 N3- 0.0223(3) 0.0461(6) 0.0263(3) 0 -.0006(3) 0
N2 N3- 0.0348(6) 0.0544(8) 0.0310(5) 0 -.0102(4) 0
S1 S2- 0.0240(1) 0.0438(1) 0.0240(1) 0 0.0044(1) 0
S2 S2- 0.0277(1) 0.0513(2) 0.0210(1) 0 0 0
O1 O2- 0.0402(6) 0.074(1) 0.0348(5) 0 0.0025(5) 0
#End of data_36006-ICSD


