data_240742-ICSD
#?2014 by Fachinformationszentrum Karlsruhe, and the U.S. Secretary of 
#Commerce on behalf of the United States.  All rights reserved.
_database_code_ICSD                240742
_audit_creation_date               2007/04/01
_chemical_name_systematic
;
Sodium Mu-oxalato-1kappa2o,o':2kappa2o'',o'''diaqua Hydroxouranyl
;
_chemical_formula_structural       '(U O2)2 (C2 O4)2 (O H) Na (H2 O)2'
_chemical_formula_sum              'C4 H5 Na1 O15 U2'
_publ_section_title
;
Reaction of uranyl nitrate with carboxylic diacids under hydrothermal 
conditions. Crystal structure of complexes with l(+)-tartaric and 
oxalic acids
;
loop_
_citation_id
_citation_journal_abbrev
_citation_year
_citation_journal_volume
_citation_journal_issue
_citation_page_first
_citation_page_last
_citation_journal_id_ASTM
primary Polyhedron 2007 26 1 101 106 PLYHDE
_publ_author_name                  'Thuery, P.'
_cell_length_a                     9.1506(4)
_cell_length_b                     13.1912(8)
_cell_length_c                     11.6910(6)
_cell_angle_alpha                  90.00
_cell_angle_beta                   90.00
_cell_angle_gamma                  90.00
_cell_volume                       1411.19
_cell_formula_units_Z              4
_symmetry_space_group_name_H-M     'P n m a'
_symmetry_Int_Tables_number        62
_refine_ls_R_factor_all            .0175
loop_
_symmetry_equiv_pos_site_id
_symmetry_equiv_pos_as_xyz
  1	'x+.5, y, -z+.5'
  2	'x, -y+.5, z'
  3	'-x+.5, y+.5, z+.5'
  4	'-x, -y, -z'
  5	'-x+.5, -y, z+.5'
  6	'-x, y+.5, -z'
  7	'x+.5, -y+.5, -z+.5'
  8	'x, y, z'
loop_
_atom_type_symbol
_atom_type_oxidation_number
C3+	3
H1+	1
Na1+	1
O2-	-2
U6+	6
loop_
_atom_site_label
_atom_site_type_symbol
_atom_site_symmetry_multiplicity
_atom_site_Wyckoff_symbol
_atom_site_fract_x
_atom_site_fract_y
_atom_site_fract_z
_atom_site_occupancy
_atom_site_attached_hydrogens
_atom_site_U_iso_or_equiv
U1 U6+ 8 d 0.771797(16) 0.587804(10) 0.609098(10) 1 0 0.01327(8) 
Na1 Na1+ 4 c 0.3796(2) 0.7500 0.54677(19) 1 0 0.0243(5) 
O1 O2- 8 d 0.5896(3) 0.6330(2) 0.6025(2) 1 0 0.0186(6) 
O2 O2- 8 d 0.9544(3) 0.5440(2) 0.6164(2) 1 0 0.0202(6) 
O3 O2- 8 d 0.8051(4) 0.6207(2) 0.4062(2) 1 0 0.0197(6) 
O4 O2- 8 d 0.7973(3) 0.5571(2) 0.2284(2) 1 0 0.0196(6) 
O5 O2- 8 d 0.7137(3) 0.4438(2) 0.4889(2) 1 0 0.0185(6) 
O6 O2- 8 d 0.7180(3) 0.3771(2) 0.3124(2) 1 0 0.0177(6) 
O7 O2- 4 c 0.8600(4) 0.7500 0.6080(3) 1 0 0.0164(8) 
H1 H1+ 4 c 0.9529 0.7500 0.5885 1 0 0.020 
O8 O2- 4 c 0.4324(5) 0.7500 0.3514(4) 1 0 0.0320(10) 
H2 H1+ 8 d 0.4017 0.6902 0.3186 1 0 0.038 
O9 O2- 4 c 0.1136(4) 0.7500 0.4743(4) 1 0 0.0346(10) 
H3 H1+ 8 d 0.1063 0.6876 0.4318 1 0 0.042 
C1 C3+ 8 d 0.7840(4) 0.5511(3) 0.3350(3) 1 0 0.0161(8) 
C2 C3+ 8 d 0.7338(4) 0.4488(4) 0.3831(3) 1 0 0.0162(8) 

loop_
_atom_site_aniso_label
_atom_site_aniso_type_symbol
_atom_site_aniso_U_11
_atom_site_aniso_U_22
_atom_site_aniso_U_33
_atom_site_aniso_U_12
_atom_site_aniso_U_13
_atom_site_aniso_U_23
U1 U6+ 0.01569(11) 0.01352(11) 0.01061(11) 0.00046(5) 0.00030(4) 
-0.00005(5)
Na1 Na1+ 0.0251(11) 0.0213(11) 0.0266(11) 0.000 0.0029(9) 0.000
O1 O2- 0.0195(14) 0.0154(14) 0.0211(14) 0.0013(11) -0.0012(10) -0.0009(11)
O2 O2- 0.0203(14) 0.0213(16) 0.0191(13) 0.0039(12) 0.0001(10) -0.0006(11)
O3 O2- 0.0285(14) 0.0167(14) 0.0140(13) -0.0020(13) 0.0019(11) 0.0004(11)
O4 O2- 0.0294(14) 0.0159(13) 0.0135(13) -0.0041(12) -0.0001(11) 0.0007(12)
O5 O2- 0.0235(14) 0.0179(14) 0.0141(13) -0.0030(11) 0.0019(10) -0.0006(12)
O6 O2- 0.0236(14) 0.0187(14) 0.0108(13) -0.0013(10) -0.0008(10) -0.0012(12)
O7 O2- 0.0186(18) 0.0131(18) 0.0174(19) 0.000 0.0035(13) 0.000
O8 O2- 0.041(3) 0.021(2) 0.033(2) 0.000 -0.001(2) 0.000
O9 O2- 0.034(2) 0.026(2) 0.043(3) 0.000 0.006(2) 0.000
C1 C3+ 0.0187(18) 0.0144(19) 0.0153(19) 0.0009(14) -0.0004(14) 0.0048(17)
C2 C3+ 0.0133(18) 0.021(2) 0.014(2) -0.0012(16) -0.0015(13) -0.0037(16)
#End of data_240742-ICSD


