data_109772-ICSD
#?2014 by Fachinformationszentrum Karlsruhe, and the U.S. Secretary of 
#Commerce on behalf of the United States.  All rights reserved.
_database_code_ICSD                109772
_audit_creation_date               2008/02/01
_chemical_name_systematic          'Zinc Squarate Tetrahydrate'
_chemical_formula_structural       'Zn (C4 O4) (H2 O)4'
_chemical_formula_sum              'C4 H8 O8 Zn1'
_publ_section_title
;
Hydrogen bonding in the chain-like coordination polymer Zn C4 O4 * 4 
H2 O: A neutron diffraction study
;
loop_
_citation_id
_citation_journal_abbrev
_citation_year
_citation_journal_volume
_citation_page_first
_citation_page_last
_citation_journal_id_ASTM
primary 'Journal of Solid State Chemistry' 1988 75 15 20 JSSCBI
_publ_author_name                  'Robl, C.;Kuhs, W.F.'
_cell_length_a                     9.012(2)
_cell_length_b                     13.336(3)
_cell_length_c                     6.746(2)
_cell_angle_alpha                  90
_cell_angle_beta                   99.33(2)
_cell_angle_gamma                  90
_cell_volume                       800.04
_cell_formula_units_Z              4
_symmetry_space_group_name_H-M     'C 1 2/c 1'
_symmetry_Int_Tables_number        15
_refine_ls_R_factor_all            .029
loop_
_symmetry_equiv_pos_site_id
_symmetry_equiv_pos_as_xyz
  1	'x, -y, z+.5'
  2	'-x, -y, -z'
  3	'-x, y, -z+.5'
  4	'x, y, z'
  5	'x+.5, -y+.5, z+.5'
  6	'-x+.5, -y+.5, -z'
  7	'-x+.5, y+.5, -z+.5'
  8	'x+.5, y+.5, z'
loop_
_atom_type_symbol
_atom_type_oxidation_number
C1.5+	1.5
H1+	1
O2-	-2
Zn2+	2
loop_
_atom_site_label
_atom_site_type_symbol
_atom_site_symmetry_multiplicity
_atom_site_Wyckoff_symbol
_atom_site_fract_x
_atom_site_fract_y
_atom_site_fract_z
_atom_site_occupancy
_atom_site_attached_hydrogens
_atom_site_B_iso_or_equiv
Zn1 Zn2+ 4 d .75 .25 0 1. 0 1.274 
O1 O2- 8 f 0.31922(18) 0.78820(12) 0.29907(18) 1. 0 2.371 
O2 O2- 8 f 0.62384(12) 0.13026(11) 0.09784(15) 1. 0 1.964 
O3 O2- 8 f 0.55408(6) 0.33302(4) 0.99026(10) 1. 0 1.562 
O4 O2- 8 f 0.25309(6) 0.45798(4) 0.99523(11) 1. 0 1.780 
C1 C1.5+ 8 f 0.52663(5) 0.42474(3) 0.99577(7) 1. 0 1.031 
C2 C1.5+ 8 f 0.38768(5) 0.48143(3) 0.99750(7) 1. 0 1.098 
H1 H1+ 8 f 0.20760(30) 0.34650(13) 0.12977(28) 1. 0 2.999 
H2 H1+ 8 f 0.09774(35) 0.25532(23) 0.12126(44) 1. 0 3.212 
H3 H1+ 8 f 0.15148(29) 0.56439(23) 0.04914(33) 1. 0 3.070 
H4 H1+ 8 f 0.36077(57) 0.12350(32) 0.26290(65) 1. 0 4.894 

loop_
_atom_site_aniso_label
_atom_site_aniso_type_symbol
_atom_site_aniso_U_11
_atom_site_aniso_U_22
_atom_site_aniso_U_33
_atom_site_aniso_U_12
_atom_site_aniso_U_13
_atom_site_aniso_U_23
Zn1 Zn2+ 0.0147(3) 0.0111(3) 0.0220(4) 0.0035(2) 0.0012(3) -.0006(3)
O1 O2- 0.0318(3) 0.0309(3) 0.0242(3) 0.0155(3) -.0050(3) -.0096(3)
O2 O2- 0.0259(3) 0.0158(3) 0.0342(4) 0.0014(2) 0.0087(3) 0.0008(3)
O3 O2- 0.0156(2) 0.0088(2) 0.0343(3) 0.0029(2) 0.0021(2) -.0019(2)
O4 O2- 0.0143(2) 0.0136(2) 0.0403(4) -.0008(2) 0.0061(2) -.0006(2)
C1 C1.5+ 0.0130(2) 0.0083(1) 0.0177(2) 0.0019(1) 0.0020(1) -.0009(1)
C2 C1.5+ 0.0129(2) 0.0092(2) 0.0197(2) 0.0012(1) 0.0029(1) -.0007(1)
H1 H1+ 0.0432(7) 0.0330(6) 0.0372(7) -.0094(5) 0.0049(5) 0.0104(5)
H2 H1+ 0.0368(6) 0.0445(7) 0.0375(7) -.0133(5) -.0037(5) 0.0017(6)
H3 H1+ 0.0444(6) 0.0218(5) 0.0521(8) -.0015(4) 0.0128(6) -.0038(5)
H4 H1+ 0.0942(18) 0.0553(10) 0.0413(11) 0.0183(10) 0.0256(11) 0.0033(8)
#End of data_109772-ICSD


