data_172438-ICSD
#?2014 by Fachinformationszentrum Karlsruhe, and the U.S. Secretary of 
#Commerce on behalf of the United States.  All rights reserved.
_database_code_ICSD                172438
_audit_creation_date               2007/04/01
_chemical_name_systematic
;
Potassium Tris(oxalato)ferrate(III) Trihydrate
;
_chemical_formula_structural       'K3 (Fe (C2 O4)3) (H2 O)3'
_chemical_formula_sum              'C6 H6 Fe1 K3 O15'
_publ_section_title
;
Supramolecular interactions in the x-ray crystal structure of 
potassium tris(oxalato)ferrate(III) trihydrate
;
loop_
_citation_id
_citation_journal_abbrev
_citation_year
_citation_journal_volume
_citation_journal_issue
_citation_page_first
_citation_page_last
_citation_journal_id_ASTM
primary 'Journal of Coordination Chemistry' 2005 58 4 355 361 JCCMBQ
_publ_author_name                  'Junk, P.C.'
_cell_length_a                     7.7422(10)
_cell_length_b                     19.9168(10)
_cell_length_c                     10.3457(10)
_cell_angle_alpha                  90.00
_cell_angle_beta                   107.846(10)
_cell_angle_gamma                  90.00
_cell_volume                       1518.55
_cell_formula_units_Z              4
_symmetry_space_group_name_H-M     'P 1 21/c 1'
_symmetry_Int_Tables_number        14
_refine_ls_R_factor_all            .0459
loop_
_symmetry_equiv_pos_site_id
_symmetry_equiv_pos_as_xyz
  1	'x, -y+.5, z+.5'
  2	'-x, -y, -z'
  3	'-x, y+.5, -z+.5'
  4	'x, y, z'
loop_
_atom_type_symbol
_atom_type_oxidation_number
C3+	3
Fe3+	3
H1+	1
K1+	1
O2-	-2
loop_
_atom_site_label
_atom_site_type_symbol
_atom_site_symmetry_multiplicity
_atom_site_Wyckoff_symbol
_atom_site_fract_x
_atom_site_fract_y
_atom_site_fract_z
_atom_site_occupancy
_atom_site_attached_hydrogens
_atom_site_U_iso_or_equiv
Fe1 Fe3+ 4 e 0.73613(5) 0.86923(2) 0.74925(4) 1 0 0.0207(2) 
O1 O2- 4 e 0.8377(3) 0.92686(11) 0.6276(2) 1 0 0.0269(5) 
K1 K1+ 4 e 0.52514(9) 1.07338(4) 0.83719(7) 1 0 0.0310(2) 
K2 K1+ 4 e 0.96087(10) 1.07792(4) 0.66319(8) 1 0 0.0369(3) 
O2 O2- 4 e 0.9711(3) 0.87750(12) 0.8948(2) 1 0 0.0306(5) 
O3 O2- 4 e 0.7582(3) 0.96947(12) 0.4186(2) 1 0 0.0318(5) 
O4 O2- 4 e 0.5077(3) 0.89032(12) 0.6034(2) 1 0 0.0277(5) 
C1 C3+ 4 e 0.9709(4) 0.91285(16) 0.9980(3) 1 0 0.0259(7) 
C2 C3+ 4 e 0.5246(4) 0.92211(14) 0.5007(3) 1 0 0.0220(6) 
O5 O2- 4 e 0.6101(3) 0.79798(11) 0.8229(2) 1 0 0.0358(6) 
O6 O2- 4 e 0.6633(3) 0.93464(11) 0.8739(2) 1 0 0.0268(5) 
O7 O2- 4 e 0.8171(3) 0.78640(11) 0.6730(2) 1 0 0.0328(5) 
C3 C3+ 4 e 0.7842(4) 0.94496(15) 0.9881(3) 1 0 0.0245(6) 
C4 C3+ 4 e 0.7234(4) 0.94171(14) 0.5124(3) 1 0 0.0225(6) 
C5 C3+ 4 e 0.7613(4) 0.72959(16) 0.7057(3) 1 0 0.0316(7) 
C6 C3+ 4 e 0.6321(5) 0.73699(16) 0.7900(3) 1 0 0.0335(7) 
K3 K1+ 4 e 0.75790(11) 1.08620(5) 0.25566(8) 1 0 0.0476(3) 
O8 O2- 4 e 0.4020(3) 0.93885(12) 0.4008(2) 1 0 0.0290(5) 
O9 O2- 4 e 0.7634(3) 0.97668(12) 1.0829(2) 1 0 0.0326(5) 
O10 O2- 4 e 1.1007(3) 0.92355(14) 1.0970(2) 1 0 0.0383(6) 
O11 O2- 4 e 0.5592(5) 0.68809(13) 0.8213(3) 1 0 0.0551(8) 
O12 O2- 4 e 0.8044(4) 0.67435(13) 0.6755(3) 1 0 0.0506(7) 
O13 O2- 4 e 0.6175(5) 1.16684(19) 1.0265(3) 1 0 0.0648(9) 
O14 O2- 4 e 0.7929(5) 1.21062(18) 0.6641(4) 1 0 0.0658(9) 
O15 O2- 4 e 0.9069(6) 1.1854(3) 0.4390(6) 1 0 0.1091(19) 
H1 H1+ 4 e 0.707(4) 1.2022(15) 1.022(5) 1 0 0.053(13) 
H2 H1+ 4 e 0.870(7) 1.207(3) 0.513(4) 1 0 0.10(2) 
H3 H1+ 4 e 1.027(5) 1.204(3) 0.441(6) 1 0 0.11(2) 
H4 H1+ 4 e 0.520(6) 1.188(2) 1.058(8) 1 0 0.13(3) 
H5 H1+ 4 e 0.679(9) 1.186(5) 0.662(10) 1 0 0.24(5) 
H6 H1+ 4 e 0.841(16) 1.232(6) 0.756(5) 1 0 0.26(6) 

loop_
_atom_site_aniso_label
_atom_site_aniso_type_symbol
_atom_site_aniso_U_11
_atom_site_aniso_U_22
_atom_site_aniso_U_33
_atom_site_aniso_U_12
_atom_site_aniso_U_13
_atom_site_aniso_U_23
Fe1 Fe3+ 0.0187(3) 0.0188(3) 0.0242(3) -0.00023(14) 0.00602(19) 
-0.00024(14)
O1 O2- 0.0173(10) 0.0300(12) 0.0322(12) -0.0027(8) 0.0059(9) 0.0053(9)
K1 K1+ 0.0279(4) 0.0334(4) 0.0319(4) 0.0012(3) 0.0097(3) 0.0022(3)
K2 K1+ 0.0253(4) 0.0501(5) 0.0362(4) -0.0004(3) 0.0108(3) -0.0018(3)
O2 O2- 0.0215(11) 0.0381(12) 0.0307(12) 0.0041(9) 0.0055(9) -0.0044(10)
O3 O2- 0.0311(12) 0.0350(13) 0.0337(12) 0.0018(10) 0.0162(10) 0.0059(10)
O4 O2- 0.0184(10) 0.0345(12) 0.0306(11) -0.0019(9) 0.0079(8) 0.0026(9)
C1 C3+ 0.0210(15) 0.0329(17) 0.0245(15) -0.0055(12) 0.0079(12) 0.0025(13)
C2 C3+ 0.0202(14) 0.0207(14) 0.0252(15) 0.0016(11) 0.0072(12) -0.0055(11)
O5 O2- 0.0488(14) 0.0246(12) 0.0414(13) -0.0077(10) 0.0248(11) -0.0051(10)
O6 O2- 0.0230(11) 0.0248(11) 0.0314(12) 0.0022(8) 0.0067(9) -0.0049(9)
O7 O2- 0.0357(12) 0.0243(11) 0.0430(13) 0.0024(9) 0.0189(10) -0.0019(10)
C3 C3+ 0.0269(16) 0.0186(14) 0.0290(16) -0.0048(12) 0.0101(12) 0.0011(12)
C4 C3+ 0.0213(15) 0.0181(14) 0.0283(15) 0.0015(11) 0.0078(12) -0.0014(12)
C5 C3+ 0.0324(17) 0.0235(16) 0.0346(17) 0.0030(13) 0.0040(13) -0.0010(13)
C6 C3+ 0.0446(19) 0.0212(16) 0.0329(17) -0.0068(14) 0.0093(15) -0.0014(13)
K3 K1+ 0.0481(6) 0.0489(6) 0.0479(6) -0.0017(3) 0.0179(4) -0.0037(3)
O8 O2- 0.0220(11) 0.0346(12) 0.0267(11) 0.0051(9) 0.0020(9) -0.0020(9)
O9 O2- 0.0402(13) 0.0291(12) 0.0320(12) -0.0033(10) 0.0163(10) -0.0055(10)
O10 O2- 0.0256(12) 0.0578(16) 0.0288(12) -0.0105(11) 0.0042(10) -0.0043(11)
O11 O2- 0.082(2) 0.0298(14) 0.0632(18) -0.0191(14) 0.0372(16) -0.0048(12)
O12 O2- 0.0585(17) 0.0273(13) 0.0662(18) 0.0108(12) 0.0195(14) -0.0068(12)
O13 O2- 0.060(2) 0.071(2) 0.068(2) -0.0066(17) 0.0273(17) -0.0196(17)
O14 O2- 0.0568(19) 0.063(2) 0.076(2) 0.0027(16) 0.0177(17) 0.0023(17)
O15 O2- 0.089(3) 0.125(4) 0.146(4) -0.042(3) 0.083(3) -0.072(3)
#End of data_172438-ICSD


