data_240223-ICSD
#?2014 by Fachinformationszentrum Karlsruhe, and the U.S. Secretary of 
#Commerce on behalf of the United States.  All rights reserved.
_database_code_ICSD                240223
_audit_creation_date               2005/10/01
_chemical_name_systematic
;
Tripotassium-trans-dichlorobis(oxalato)rhodate(III)-tetrahydrate
;
_chemical_formula_structural       'K3 (Rh Cl2 (C2 O4)2) (H2 O)4'
_chemical_formula_sum              'C4 H8 Cl2 K3 O12 Rh1'
_publ_section_title
;
Synthese und Kristallstrukturen der Bis(oxalato)metallate trans-K3 
(Rh Cl2 (C2 O4)2) * 4 H2 O und cis-K3 (Ir Cl2 (C2 O4)2) * H2 O
;
loop_
_citation_id
_citation_journal_abbrev
_citation_year
_citation_journal_volume
_citation_page_first
_citation_page_last
_citation_journal_id_ASTM
primary 'Zeitschrift fuer Naturforschung, B: Chemical Sciences'
 2000 55 473 478 ZNBSEN
_publ_author_name                  'Rohde, J.U.;Preetz, W.'
_cell_length_a                     6.2180(10)
_cell_length_b                     11.837(2)
_cell_length_c                     10.357(2)
_cell_angle_alpha                  90.00
_cell_angle_beta                   95.55(3)
_cell_angle_gamma                  90.00
_cell_volume                       758.73
_cell_formula_units_Z              2
_symmetry_space_group_name_H-M     'I 1 2/m 1'
_symmetry_Int_Tables_number        12
_refine_ls_R_factor_all            .02
loop_
_symmetry_equiv_pos_site_id
_symmetry_equiv_pos_as_xyz
  1	'x, -y, z'
  2	'-x, -y, -z'
  3	'-x, y, -z'
  4	'x, y, z'
  5	'x+.5, -y+.5, z+.5'
  6	'-x+.5, -y+.5, -z+.5'
  7	'-x+.5, y+.5, -z+.5'
  8	'x+.5, y+.5, z+.5'
loop_
_atom_type_symbol
_atom_type_oxidation_number
C3+	3
Cl1-	-1
H1+	1
K1+	1
O2-	-2
Rh3+	3
loop_
_atom_site_label
_atom_site_type_symbol
_atom_site_symmetry_multiplicity
_atom_site_Wyckoff_symbol
_atom_site_fract_x
_atom_site_fract_y
_atom_site_fract_z
_atom_site_occupancy
_atom_site_attached_hydrogens
_atom_site_U_iso_or_equiv
Rh1 Rh3+ 2 a 1.0000 0.0000 1.0000 1 0 0.00998(12) 
K1 K1+ 2 b 0.5000 0.0000 0.5000 1 0 0.0291(5) 
K2 K1+ 4 h 0.5000 -0.23110(4) 1.0000 1 0 0.0190(2) 
Cl1 Cl1- 4 i 0.67545(14) 0.0000 0.86530(6) 1 0 0.0168(2) 
O1 O2- 8 j 1.1177(3) -0.11211(9) 0.87749(12) 1 0 0.0144(4) 
C1 C3+ 8 j 1.1597(4) -0.06545(13) 0.76913(16) 1 0 0.0146(6) 
O2 O2- 8 j 1.2023(3) -0.11673(11) 0.67274(12) 1 0 0.0247(6) 
O3 O2- 8 j 0.8350(4) -0.30770(13) 0.87262(17) 1 0 0.0243(7) 
H1 H1+ 8 j 0.822(7) -0.327(3) 0.816(3) 1 0 0.050(11) 
H2 H1+ 8 j 0.940(7) -0.259(2) 0.869(3) 1 0 0.040(10) 

loop_
_atom_site_aniso_label
_atom_site_aniso_type_symbol
_atom_site_aniso_U_11
_atom_site_aniso_U_22
_atom_site_aniso_U_33
_atom_site_aniso_U_12
_atom_site_aniso_U_13
_atom_site_aniso_U_23
Rh1 Rh3+ 0.0099(3) 0.00952(10) 0.01085(12) 0.000 0.00277(18) 0.000
K1 K1+ 0.0377(13) 0.0166(3) 0.0335(5) 0.000 0.0061(8) 0.000
K2 K1+ 0.0180(7) 0.01811(19) 0.0214(3) 0.000 0.0045(4) 0.000
Cl1 Cl1- 0.0143(7) 0.0182(2) 0.0177(3) 0.000 0.0007(4) 0.000
O1 O2- 0.0165(13) 0.0119(4) 0.0155(5) 0.0000(6) 0.0048(8) -0.0009(5)
C1 C3+ 0.0143(7) 0.0182(2) 0.0177(3) 0.000 0.0007(4) 0.000
O2 O2- 0.0329(17) 0.0236(5) 0.0191(6) -0.0013(7) 0.0108(11) -0.0070(6)
O3 O2- 0.0234(19) 0.0263(6) 0.0237(7) -0.0017(8) 0.0051(12) -0.0012(7)
#End of data_240223-ICSD


