data_424131-ICSD
#?2014 by Fachinformationszentrum Karlsruhe, and the U.S. Secretary of 
#Commerce on behalf of the United States.  All rights reserved.
_database_code_ICSD                424131
_audit_creation_date               2013/08/01
_chemical_name_systematic
;
Potassium Bis(aminocarbonyl) Phosphorodiamidate
;
_chemical_formula_structural       'K (P O2 (N H C O N H2)2)'
_chemical_formula_sum              'C2 H6 K1 N4 O4 P1'
_publ_section_title
;
Ammonothermal synthesis of alkali N, N' - Bis (Aminocarbonyl) - 
phosphorodiamidates M (P O2 (N H C O N H2)2) (M = Na, K, Rb)
;
loop_
_citation_id
_citation_journal_abbrev
_citation_year
_citation_journal_volume
_citation_journal_issue
_citation_page_first
_citation_page_last
_citation_journal_id_ASTM
primary 'European Journal of Inorganic Chemistry  (online)'
 2012 2012 20 3293 3301 EJICFO
_publ_author_name
;
Wirnhier, E.;Boller, R.D.;Schnick, W.
;
_cell_length_a                     10.370(2)
_cell_length_b                     12.707(6)
_cell_length_c                     11.103(2)
_cell_angle_alpha                  90.
_cell_angle_beta                   90.
_cell_angle_gamma                  90.
_cell_volume                       1463.06
_cell_formula_units_Z              8
_symmetry_space_group_name_H-M     'F d d 2'
_symmetry_Int_Tables_number        43
_refine_ls_R_factor_all            .0294
loop_
_symmetry_equiv_pos_site_id
_symmetry_equiv_pos_as_xyz
  1	'x+.25, -y+.25, z+.25'
  2	'-x+.25, y+.25, z+.25'
  3	'-x, -y, z'
  4	'x, y, z'
  5	'x+.25, -y+.75, z+.75'
  6	'x+.75, -y+.25, z+.75'
  7	'x+.75, -y+.75, z+.25'
  8	'-x+.25, y+.75, z+.75'
  9	'-x+.75, y+.25, z+.75'
 10	'-x+.75, y+.75, z+.25'
 11	'-x, -y+.5, z+.5'
 12	'-x+.5, -y, z+.5'
 13	'-x+.5, -y+.5, z'
 14	'x, y+.5, z+.5'
 15	'x+.5, y, z+.5'
 16	'x+.5, y+.5, z'
loop_
_atom_type_symbol
_atom_type_oxidation_number
C4+	4
H1+	1
K1+	1
N3-	-3
O2-	-2
P5+	5
loop_
_atom_site_label
_atom_site_type_symbol
_atom_site_symmetry_multiplicity
_atom_site_Wyckoff_symbol
_atom_site_fract_x
_atom_site_fract_y
_atom_site_fract_z
_atom_site_occupancy
_atom_site_attached_hydrogens
_atom_site_U_iso_or_equiv
K1 K1+ 8 a 0.2500 -0.2500 0.43299(7) 1 0 0.0240(2) 
P1 P5+ 8 a 0.0000 0.0000 0.36490(6) 1 0 0.01036(17) 
O1 O2- 16 b 0.26561(15) 0.11042(13) 0.15193(15) 1 0 0.0158(3) 
O2 O2- 16 b 0.03167(17) -0.09888(13) 0.43139(16) 1 0 0.0172(3) 
N1 N3- 16 b 0.12784(17) 0.02133(14) 0.27363(18) 1 0 0.0127(3) 
N2 N3- 16 b 0.0978(2) 0.19926(14) 0.23244(18) 1 0 0.0162(4) 
H1 H1+ 16 b 0.1199 0.2565 0.1966 1 0 0.019 
H2 H1+ 16 b 0.0307 0.1983 0.2780 1 0 0.019 
C1 C4+ 16 b 0.1678(2) 0.11175(16) 0.21733(19) 1 0 0.0115(4) 
H3 H1+ 16 b 0.163(3) -0.0323(18) 0.250(2) 1 0 0.012(6) 

loop_
_atom_site_aniso_label
_atom_site_aniso_type_symbol
_atom_site_aniso_U_11
_atom_site_aniso_U_22
_atom_site_aniso_U_33
_atom_site_aniso_U_12
_atom_site_aniso_U_13
_atom_site_aniso_U_23
K1 K1+ 0.0206(4) 0.0266(4) 0.0249(4) -0.0035(3) 0.000 0.000
P1 P5+ 0.0113(3) 0.0093(3) 0.0105(3) -0.0032(2) 0.000 0.000
O1 O2- 0.0138(7) 0.0121(7) 0.0215(8) -0.0027(6) 0.0061(5) -0.0029(6)
O2 O2- 0.0168(7) 0.0164(7) 0.0186(7) -0.0056(6) -0.0059(6) 0.0053(6)
N1 N3- 0.0114(7) 0.0080(7) 0.0187(8) -0.0001(6) 0.0044(7) 0.0003(7)
N2 N3- 0.0179(9) 0.0094(7) 0.0213(9) 0.0004(7) 0.0076(7) 0.0018(7)
C1 C4+ 0.0105(8) 0.0113(9) 0.0127(8) -0.0022(7) -0.0007(7) -0.0015(7)
#End of data_424131-ICSD


