data_200042-ICSD
#?2014 by Fachinformationszentrum Karlsruhe, and the U.S. Secretary of 
#Commerce on behalf of the United States.  All rights reserved.
_database_code_ICSD                200042
_audit_creation_date               1980/01/01
_audit_update_record               2005/10/01
_chemical_name_systematic
;
Hexakis(amminecyanodihydridoborane)sodium Iodide
;
_chemical_formula_structural       '(Na ((N H3) B H2 (C N))6) I'
_chemical_formula_sum              'C6 H30 B6 I1 N12 Na1'
_publ_section_title
;
Synthesis and crystal structure of hexakis(ammonia-cyanoborane) 
sodium iodide
;
loop_
_citation_id
_citation_journal_abbrev
_citation_year
_citation_journal_volume
_citation_page_first
_citation_page_last
_citation_journal_id_ASTM
primary
;
Journal of the Chemical Society. Dalton Transactions, Inorganic 
Chemistry (1972-)
;
 1977 1977 2150 2153 JCDTBI
_publ_author_name
;
Hargrave, K.D.;McPhail, A.T.;Spielvogel, B.F.;Wisian-Neilson, P.
;
_cell_length_a                     8.506(4)
_cell_length_b                     8.506(4)
_cell_length_c                     8.506(4)
_cell_angle_alpha                  82.54(5)
_cell_angle_beta                   82.54(5)
_cell_angle_gamma                  82.54(5)
_cell_volume                       601.04
_cell_formula_units_Z              1
_symmetry_space_group_name_H-M     'R -3 R'
_symmetry_Int_Tables_number        148
_refine_ls_R_factor_all            .063
loop_
_symmetry_equiv_pos_site_id
_symmetry_equiv_pos_as_xyz
  1	'-z, -x, -y'
  2	'-y, -z, -x'
  3	'-x, -y, -z'
  4	'z, x, y'
  5	'y, z, x'
  6	'x, y, z'
loop_
_atom_type_symbol
_atom_type_oxidation_number
B3+	3
C2+	2
H1-	-1
H1+	1
I1-	-1
N3-	-3
Na1+	1
loop_
_atom_site_label
_atom_site_type_symbol
_atom_site_symmetry_multiplicity
_atom_site_Wyckoff_symbol
_atom_site_fract_x
_atom_site_fract_y
_atom_site_fract_z
_atom_site_occupancy
_atom_site_attached_hydrogens
Na1 Na1+ 1 b 0.5 0.5 0.5 1. 0 
I1 I1- 1 a 0 0 0 1. 0 
N1 N3- 6 f 0.1978(5) -.1050(5) 0.6095(5) 1. 0 
B1 B3+ 6 f 0.1994(8) 0.0640(7) 0.5074(8) 1. 0 
C1 C2+ 6 f 0.3441(6) 0.1475(6) 0.5434(6) 1. 0 
N2 N3- 6 f 0.4443(6) 0.2177(5) 0.5664(6) 1. 0 
H1 H1+ 6 f 0.107(11) -.176(10) 0.581(11) 1. 0 
H2 H1+ 6 f 0.180(9) -.111(9) 0.719(9) 1. 0 
H3 H1+ 6 f 0.293(8) -.163(8) 0.591(8) 1. 0 
H4 H1- 6 f 0.093(6) 0.147(6) 0.539(6) 1. 0 
H5 H1- 6 f 0.215(11) 0.045(11) 0.373(12) 1. 0 

#End of data_200042-ICSD


