data_30518-ICSD
#?2014 by Fachinformationszentrum Karlsruhe, and the U.S. Secretary of 
#Commerce on behalf of the United States.  All rights reserved.
_database_code_ICSD                30518
_audit_creation_date               1980/01/01
_audit_update_record               1985/05/28
_chemical_name_systematic          'Calcium Nitrate Tetraurea'
_chemical_formula_structural       'Ca (N O3)2 (N H2 C O N H2)4'
_chemical_formula_sum              'C4 H16 Ca1 N10 O10'
_publ_section_title                'Calcium Nitrate Tetraurea'
loop_
_citation_id
_citation_journal_abbrev
_citation_year
_citation_journal_volume
_citation_page_first
_citation_page_last
_citation_journal_id_ASTM
primary 'Acta Crystallographica B (24,1968-38,1982)' 1977 33 1583 1586 ACBCAR
_publ_author_name                  'Lebioda, L.'
_cell_length_a                     9.246(1)
_cell_length_b                     12.688(1)
_cell_length_c                     7.684(1)
_cell_angle_alpha                  90.
_cell_angle_beta                   113.51(1)
_cell_angle_gamma                  90.
_cell_volume                       826.61
_cell_formula_units_Z              2
_symmetry_space_group_name_H-M     'P 1 21/c 1'
_symmetry_Int_Tables_number        14
_refine_ls_R_factor_all            .057
loop_
_symmetry_equiv_pos_site_id
_symmetry_equiv_pos_as_xyz
  1	'x, -y+.5, z+.5'
  2	'-x, -y, -z'
  3	'-x, y+.5, -z+.5'
  4	'x, y, z'
loop_
_atom_type_symbol
_atom_type_oxidation_number
C4+	4
Ca2+	2
H1+	1
N3-	-3
N5+	5
O2-	-2
loop_
_atom_site_label
_atom_site_type_symbol
_atom_site_symmetry_multiplicity
_atom_site_Wyckoff_symbol
_atom_site_fract_x
_atom_site_fract_y
_atom_site_fract_z
_atom_site_occupancy
_atom_site_attached_hydrogens
_atom_site_B_iso_or_equiv
Ca1 Ca2+ 2 a 0 0.5 0.5 1. 0 0 
O1 O2- 4 e 0.2236(2) 0.4510(1) 0.4438(2) 1. 0 0 
O2 O2- 4 e 0.3975(3) 0.3405(2) 0.4460(3) 1. 0 0 
O3 O2- 4 e 0.4245(3) 0.4177(2) 0.7018(3) 1. 0 0 
N1 N5+ 4 e 0.3511(2) 0.4039(1) 0.5336(2) 1. 0 0 
O4 O2- 4 e 0.0571(2) 0.3946(1) 0.7640(2) 1. 0 0 
N2 N3- 4 e 0.1162(3) 0.3092(2) 1.0408(3) 1. 0 0 
N3 N3- 4 e 0.2208(3) 0.4722(2) 1.0369(3) 1. 0 0 
C1 C4+ 4 e 0.1295(2) 0.3920(1) 0.9412(3) 1. 0 0 
O5 O2- 4 e 0.1311(2) 0.6422(1) 0.6796(2) 1. 0 0 
N4 N3- 4 e 0.2543(2) 0.7905(1) 0.8263(3) 1. 0 0 
N5 N3- 4 e 0.3963(2) 0.6426(2) 0.8238(3) 1. 0 0 
C2 C4+ 4 e 0.2567(2) 0.6907(2) 0.7732(2) 1. 0 0 
H1 H1+ 4 e 0.174 0.307 1.182 1. 0 3.78 
H2 H1+ 4 e 0.048 0.249 0.967 1. 0 3.78 
H3 H1+ 4 e 0.279 0.47 1.178 1. 0 3.78 
H4 H1+ 4 e 0.231 0.535 0.963 1. 0 3.78 
H5 H1+ 4 e 0.354 0.829 0.901 1. 0 3.78 
H6 H1+ 4 e 0.15 0.826 0.788 1. 0 3.78 
H7 H1+ 4 e 0.496 0.681 0.899 1. 0 3.78 
H8 H1+ 4 e 0.398 0.568 0.784 1. 0 3.78 

loop_
_atom_site_aniso_label
_atom_site_aniso_type_symbol
_atom_site_aniso_U_11
_atom_site_aniso_U_22
_atom_site_aniso_U_33
_atom_site_aniso_U_12
_atom_site_aniso_U_13
_atom_site_aniso_U_23
Ca1 Ca2+ 0.0213(2) 0.0213(2) 0.0210(2) -.0008(2) 0.0054(2) -.0003(2)
O1 O2- 0.0362(8) 0.0678(11) 0.0533(9) 0.0230(8) 0.0191(7) 0.0107(8)
O2 O2- 0.0793(14) 0.1222(19) 0.0493(10) 0.0621(14) 0.0169(10) -.0031(11)
O3 O2- 0.113(2) 0.0927(17) 0.0482(11) 0.0367(15) -.0155(12) -.0219(11)
N1 N5+ 0.0345(9) 0.0474(10) 0.0353(8) 0.0085(8) 0.0102(7) 0.0011(7)
O4 O2- 0.0455(8) 0.0359(7) 0.0262(6) -.0026(6) 0.0056(6) 0.0069(5)
N2 N3- 0.0835(16) 0.0424(10) 0.0313(9) -.0146(10) 0.0081(10) 0.0102(8)
N3 N3- 0.0898(17) 0.0509(11) 0.0331(10) -.0307(12) 0.0117(11) -.0015(8)
C1 C4+ 0.0379(10) 0.0297(9) 0.0285(9) 0.0000(8) 0.0109(8) 0.0039(7)
O5 O2- 0.0333(7) 0.0321(7) 0.0429(8) -.0092(6) 0.0108(6) -.0121(6)
N4 N3- 0.0331(9) 0.0351(9) 0.0720(13) -.0086(8) 0.0103(9) -.0251(9)
N5 N3- 0.0333(10) 0.0478(11) 0.0617(12) 0.0034(8) 0.0057(9) -.0112(9)
C2 C4+ 0.0309(9) 0.0302(9) 0.0290(9) -.0052(7) 0.0114(7) -.0039(7)
#End of data_30518-ICSD


