data_261774-ICSD
#?2014 by Fachinformationszentrum Karlsruhe, and the U.S. Secretary of 
#Commerce on behalf of the United States.  All rights reserved.
_database_code_ICSD                261774
_audit_creation_date               2012/02/01
_audit_update_record               2012/08/01
_chemical_name_systematic
;
Silver Terbium Oxalate Sulfate(VI) Hydrate
;
_chemical_formula_structural       'Ag Tb (C2 O4) (S O4) (H2 O)'
_chemical_formula_sum              'C2 H2 Ag1 O9 S1 Tb1'
_publ_section_title
;
Organic-inorganic hybrid lanthanide-silver heterometallic 
coordination frameworks constructed from oxalate and sulfate anion: 
syntheses, structures, and photoluminescent properties
;
loop_
_citation_id
_citation_journal_abbrev
_citation_year
_citation_journal_volume
_citation_journal_issue
_citation_page_first
_citation_page_last
_citation_journal_id_ASTM
primary 'Zeitschrift fuer Anorganische und Allgemeine Chemie (1950) (DE)'
 2011 637 6 741 747 ZAACAB
_publ_author_name
;
Xiao Xueying;Wei Yongqin;Zheng Wenxu;Wu Kechen
;
_cell_length_a                     13.693(5)
_cell_length_b                     6.889(3)
_cell_length_c                     9.0885(3)
_cell_angle_alpha                  90.00
_cell_angle_beta                   116.729(15)
_cell_angle_gamma                  90.00
_cell_volume                       765.72
_cell_formula_units_Z              4
_symmetry_space_group_name_H-M     'C 1 2/m 1'
_symmetry_Int_Tables_number        12
_refine_ls_R_factor_all            .0215
loop_
_symmetry_equiv_pos_site_id
_symmetry_equiv_pos_as_xyz
  1	'-x, y, -z'
  2	'-x, -y, -z'
  3	'x, -y, z'
  4	'x, y, z'
  5	'-x+.5, y+.5, -z'
  6	'-x+.5, -y+.5, -z'
  7	'x+.5, -y+.5, z'
  8	'x+.5, y+.5, z'
loop_
_atom_type_symbol
_atom_type_oxidation_number
Ag1+	1
C3+	3
H1+	1
O2-	-2
S6+	6
Tb3+	3
loop_
_atom_site_label
_atom_site_type_symbol
_atom_site_symmetry_multiplicity
_atom_site_Wyckoff_symbol
_atom_site_fract_x
_atom_site_fract_y
_atom_site_fract_z
_atom_site_occupancy
_atom_site_attached_hydrogens
_atom_site_U_iso_or_equiv
Tb1 Tb3+ 4 i 0.24455(2) 0.0000 0.26493(4) 1 0 0.01104(14) 
Ag1 Ag1+ 4 i 0.08430(5) 0.0000 -0.32518(8) 1 0 0.02479(17) 
S1 S6+ 4 i 0.32879(13) 0.0000 0.70452(19) 1 0 0.0127(3) 
O1 O2- 4 i 0.1184(4) 0.0000 -0.0254(6) 1 0 0.0194(10) 
O2 O2- 4 i -0.0564(4) 0.0000 -0.2153(6) 1 0 0.0199(11) 
O3 O2- 8 j 0.4109(3) 0.1918(5) 0.4119(4) 1 0 0.0175(7) 
O4 O2- 4 i 0.2585(4) 0.0000 0.5253(6) 1 0 0.0224(11) 
O5 O2- 8 j 0.3000(3) 0.1710(5) 0.7756(4) 1 0 0.0220(8) 
O6 O2- 4 i 0.4424(4) 0.0000 0.7446(8) 1 0 0.0296(13) 
C1 C3+ 4 i 0.0180(6) 0.0000 -0.0698(8) 1 0 0.0160(13) 
C2 C3+ 4 h 0.5000 0.1115(9) 0.5000 1 0 0.0126(12) 
O7 O2- 4 i 0.3358(5) 0.0000 0.1017(7) 1 0 0.0377(17) 
H1 H1+ 4 i 0.3205 0.0000 0.0058 1 0 0.057 
H2 H1+ 4 i 0.4048 0.0000 0.1552 1 0 0.057 

loop_
_atom_site_aniso_label
_atom_site_aniso_type_symbol
_atom_site_aniso_U_11
_atom_site_aniso_U_22
_atom_site_aniso_U_33
_atom_site_aniso_U_12
_atom_site_aniso_U_13
_atom_site_aniso_U_23
Tb1 Tb3+ 0.01010(18) 0.01148(19) 0.01071(19) 0.000 0.00395(13) 0.000
Ag1 Ag1+ 0.0337(3) 0.0167(3) 0.0297(3) 0.000 0.0194(3) 0.000
S1 S6+ 0.0116(7) 0.0135(8) 0.0131(7) 0.000 0.0057(6) 0.000
O1 O2- 0.013(2) 0.029(3) 0.018(2) 0.000 0.0084(19) 0.000
O2 O2- 0.015(2) 0.028(3) 0.016(2) 0.000 0.0064(19) 0.000
O3 O2- 0.0132(15) 0.0137(16) 0.0225(17) 0.0019(13) 0.0055(13) 0.0027(14)
O4 O2- 0.022(2) 0.034(3) 0.011(2) 0.000 0.008(2) 0.000
O5 O2- 0.0271(19) 0.0165(19) 0.0190(17) 0.0062(15) 0.0074(14) -0.0012(14)
O6 O2- 0.012(2) 0.039(4) 0.032(3) 0.000 0.005(2) 0.000
C1 C3+ 0.019(3) 0.017(3) 0.014(3) 0.000 0.010(3) 0.000
C2 C3+ 0.015(3) 0.011(3) 0.016(3) 0.000 0.011(2) 0.000
O7 O2- 0.018(3) 0.083(5) 0.014(3) 0.000 0.008(2) 0.000
#End of data_261774-ICSD


