data_411924-ICSD
#?2014 by Fachinformationszentrum Karlsruhe, and the U.S. Secretary of 
#Commerce on behalf of the United States.  All rights reserved.
_database_code_ICSD                411924
_audit_creation_date               2005/04/01
_chemical_name_systematic
;
Trisodium Pentacyanoammineferrate(II) Heptahydrate
;
_chemical_formula_structural       'Na3 (Fe (N H3) (C N)5) (H2 O)7'
_chemical_formula_sum              'C5 H17 Fe1 N6 Na3 O7'
_publ_section_title
;
The crystal and molecular structure of sodium 
pentacyanoammineferrate(II) heptahydrate. Role of intermolecular 
hydrogen-bond interactions
;
loop_
_citation_id
_citation_journal_abbrev
_citation_year
_citation_journal_volume
_citation_journal_issue
_citation_page_first
_citation_page_last
_citation_journal_id_ASTM
primary 'Inorganica Chimica Acta' 2001 319 1-2 199 202 ICHAA3
_publ_author_name
;
Parise, A.R;Piro, O.E.;Castellano, E.E.;Olabe, J.A.
;
_cell_length_a                     8.2719(10)
_cell_length_b                     9.603(3)
_cell_length_c                     11.3531(10)
_cell_angle_alpha                  92.01(2)
_cell_angle_beta                   102.646(10)
_cell_angle_gamma                  114.06(2)
_cell_volume                       795.64
_cell_formula_units_Z              2
_symmetry_space_group_name_H-M     'P -1'
_symmetry_Int_Tables_number        2
_refine_ls_R_factor_all            .0493
loop_
_symmetry_equiv_pos_site_id
_symmetry_equiv_pos_as_xyz
  1	'-x, -y, -z'
  2	'x, y, z'
loop_
_atom_type_symbol
_atom_type_oxidation_number
C2+	2
Fe2+	2
H1+	1
N3-	-3
Na1+	1
O2-	-2
loop_
_atom_site_label
_atom_site_type_symbol
_atom_site_symmetry_multiplicity
_atom_site_Wyckoff_symbol
_atom_site_fract_x
_atom_site_fract_y
_atom_site_fract_z
_atom_site_occupancy
_atom_site_attached_hydrogens
_atom_site_U_iso_or_equiv
Fe1 Fe2+ 2 i 0.65194(4) 0.87589(4) 0.34057(3) 1 0 0.0193(2) 
Na1 Na1+ 2 i 0.63599(15) 0.36911(13) 0.35441(10) 1 0 0.0324(3) 
Na2 Na1+ 2 i 1.0066(2) 0.58099(15) 0.26671(12) 1 0 0.0425(3) 
Na3 Na1+ 2 i -0.0339(2) 0.1652(2) 0.04767(12) 1 0 0.0435(3) 
C1 C2+ 2 i 0.5524(4) 0.7587(3) 0.1871(2) 1 0 0.0261(5) 
C2 C2+ 2 i 0.8633(3) 1.0039(3) 0.2894(2) 1 0 0.0226(5) 
C3 C2+ 2 i 0.7675(3) 0.7429(3) 0.3937(2) 1 0 0.0243(5) 
C4 C2+ 2 i 0.4399(3) 0.7478(3) 0.3927(2) 1 0 0.0243(5) 
C5 C2+ 2 i 0.5358(3) 1.0073(3) 0.2880(2) 1 0 0.0240(5) 
N1 N3- 2 i 0.4929(4) 0.6872(3) 0.0906(2) 1 0 0.0375(6) 
N2 N3- 2 i 0.9897(3) 1.0795(3) 0.2571(2) 1 0 0.0344(6) 
N3 N3- 2 i 0.8375(4) 0.6623(3) 0.4202(2) 1 0 0.0349(6) 
N4 N3- 2 i 0.3125(3) 0.6723(3) 0.4237(2) 1 0 0.0361(6) 
N5 N3- 2 i 0.4648(3) 1.0854(3) 0.2554(2) 1 0 0.0352(6) 
N6 N3- 2 i 0.7600(3) 1.0075(3) 0.5110(2) 1 0 0.0287(5) 
H1 H1+ 2 i 0.8818(3) 1.0486(39) 0.5282(16) 1 0 0.121(6) 
H2 H1+ 2 i 0.7221(47) 0.9481(10) 0.5668(5) 1 0 0.121(6) 
H3 H1+ 2 i 0.7228(47) 1.0823(30) 0.5111(12) 1 0 0.121(6) 
O1 O2- 2 i 0.9201(3) 0.3558(2) 0.3583(2) 1 0 0.0339(5) 
H4 H1+ 2 i 0.9977(72) 0.3596(61) 0.4360(26) 1 0 0.121(6) 
H5 H1+ 2 i 0.8971(80) 0.2615(37) 0.3126(39) 1 0 0.121(6) 
O2 O2- 2 i 0.2215(3) 0.1256(3) 0.0413(2) 1 0 0.0430(5) 
H6 H1+ 2 i 0.2965(59) 0.1774(68) -0.0108(39) 1 0 0.121(6) 
H7 H1+ 2 i 0.3066(56) 0.1345(69) 0.1173(26) 1 0 0.121(6) 
O3 O2- 2 i 1.0824(3) 0.8141(3) 0.1745(2) 1 0 0.0407(5) 
H8 H1+ 2 i 1.2114(19) 0.8671(55) 0.2108(52) 1 0 0.121(6) 
H9 H1+ 2 i 1.0325(62) 0.8823(50) 0.1965(54) 1 0 0.121(6) 
O4 O2- 2 i 0.6831(3) 0.4744(3) 0.1609(2) 1 0 0.0416(5) 
H10 H1+ 2 i 0.6228(73) 0.4098(56) 0.0840(28) 1 0 0.121(6) 
H11 H1+ 2 i 0.6303(73) 0.5463(51) 0.1606(48) 1 0 0.121(6) 
O5 O2- 2 i 0.3434(3) 0.3683(3) 0.3320(3) 1 0 0.0527(6) 
H12 H1+ 2 i 0.2897(68) 0.4080(58) 0.2656(39) 1 0 0.121(6) 
H13 H1+ 2 i 0.2448(51) 0.2741(40) 0.3387(53) 1 0 0.121(6) 
O6 O2- 2 i 0.6943(4) 0.1587(4) 0.0578(3) 1 0 0.0629(8) 
H14 H1+ 2 i 0.6162(59) 0.1037(64) 0.1077(43) 1 0 0.121(6) 
H15 H1+ 2 i 0.6190(60) 0.1878(72) -0.0034(41) 1 0 0.121(6) 
O7 O2- 2 i 1.1302(5) 0.4485(4) 0.1297(3) 1 0 0.0766(10) 
H16 H1+ 2 i 1.2544(27) 0.4953(67) 0.1223(51) 1 0 0.121(6) 
H17 H1+ 2 i 1.0650(61) 0.4810(75) 0.0630(43) 1 0 0.121(6) 

loop_
_atom_site_aniso_label
_atom_site_aniso_type_symbol
_atom_site_aniso_U_11
_atom_site_aniso_U_22
_atom_site_aniso_U_33
_atom_site_aniso_U_12
_atom_site_aniso_U_13
_atom_site_aniso_U_23
Fe1 Fe2+ 0.0198(2) 0.0184(2) 0.0194(2) 0.0081(2) 0.00462(15) 0.00247(14)
Na1 Na1+ 0.0296(6) 0.0320(6) 0.0358(6) 0.0130(5) 0.0088(5) 0.0053(5)
Na2 Na1+ 0.0381(7) 0.0381(7) 0.0472(7) 0.0123(5) 0.0097(5) 0.0134(6)
Na3 Na1+ 0.0440(7) 0.0546(8) 0.0400(7) 0.0272(6) 0.0134(6) 0.0105(6)
C1 C2+ 0.0270(13) 0.0247(12) 0.0270(13) 0.0109(10) 0.0078(10) 0.0064(10)
C2 C2+ 0.0244(12) 0.0217(11) 0.0222(12) 0.0109(10) 0.0045(9) 0.0030(9)
C3 C2+ 0.0256(12) 0.0222(12) 0.0212(12) 0.0075(10) 0.0040(9) 0.0009(9)
C4 C2+ 0.0257(13) 0.0250(12) 0.0208(12) 0.0107(10) 0.0036(10) 0.0016(9)
C5 C2+ 0.0236(12) 0.0212(11) 0.0238(12) 0.0063(10) 0.0061(9) 0.0009(9)
N1 N3- 0.0455(14) 0.0353(13) 0.0267(12) 0.0156(11) 0.0037(11) -0.0031(10)
N2 N3- 0.0317(13) 0.0372(14) 0.0347(13) 0.0127(11) 0.0127(11) 0.0098(11)
N3 N3- 0.0403(14) 0.0297(12) 0.0369(13) 0.0202(11) 0.0035(11) 0.0040(10)
N4 N3- 0.0292(13) 0.0374(14) 0.0369(14) 0.0083(11) 0.0105(10) 0.0065(11)
N5 N3- 0.0356(13) 0.0322(12) 0.0390(14) 0.0191(11) 0.0029(11) 0.0049(10)
N6 N3- 0.0293(11) 0.0294(11) 0.0248(11) 0.0118(9) 0.0039(9) -0.0004(9)
O1 O2- 0.0349(11) 0.0295(10) 0.0371(11) 0.0155(9) 0.0059(9) 0.0019(8)
O2 O2- 0.0358(12) 0.0571(14) 0.0386(12) 0.0207(11) 0.0113(9) 0.0128(11)
O3 O2- 0.0402(12) 0.0384(12) 0.0406(12) 0.0148(10) 0.0086(10) 0.0065(9)
O4 O2- 0.0502(13) 0.0391(12) 0.0339(11) 0.0222(10) 0.0026(10) -0.0037(9)
O5 O2- 0.0396(13) 0.0536(15) 0.068(2) 0.0228(11) 0.0144(12) 0.0015(12)
O6 O2- 0.061(2) 0.091(2) 0.062(2) 0.051(2) 0.0256(14) 0.032(2)
O7 O2- 0.066(2) 0.058(2) 0.088(2) 0.0012(15) 0.037(2) -0.007(2)
#End of data_411924-ICSD


