data_424129-ICSD
#?2014 by Fachinformationszentrum Karlsruhe, and the U.S. Secretary of 
#Commerce on behalf of the United States.  All rights reserved.
_database_code_ICSD                424129
_audit_creation_date               2013/08/01
_chemical_name_systematic
;
Sodium Bis(aminocarbonyl)phosphorodiamidate
;
_chemical_formula_structural       'Na (P O2 (N H C O N H2)2)'
_chemical_formula_sum              'C2 H6 N4 Na1 O4 P1'
_publ_section_title
;
Ammonothermal synthesis of alkali N, N' - Bis (Aminocarbonyl) - 
phosphorodiamidates M (P O2 (N H C O N H2)2) (M = Na, K, Rb)
;
loop_
_citation_id
_citation_journal_abbrev
_citation_year
_citation_journal_volume
_citation_journal_issue
_citation_page_first
_citation_page_last
_citation_journal_id_ASTM
primary 'European Journal of Inorganic Chemistry  (online)'
 2012 2012 20 3293 3301 EJICFO
_publ_author_name
;
Wirnhier, E.;Boller, R.D.;Schnick, W.
;
_cell_length_a                     8.752(2)
_cell_length_b                     11.912(2)
_cell_length_c                     7.006(1)
_cell_angle_alpha                  90.
_cell_angle_beta                   103.68(3)
_cell_angle_gamma                  90.
_cell_volume                       709.68
_cell_formula_units_Z              4
_symmetry_space_group_name_H-M     'C 1 2/c 1'
_symmetry_Int_Tables_number        15
_refine_ls_R_factor_all            .0251
loop_
_symmetry_equiv_pos_site_id
_symmetry_equiv_pos_as_xyz
  1	'x, -y, z+.5'
  2	'-x, -y, -z'
  3	'-x, y, -z+.5'
  4	'x, y, z'
  5	'x+.5, -y+.5, z+.5'
  6	'-x+.5, -y+.5, -z'
  7	'-x+.5, y+.5, -z+.5'
  8	'x+.5, y+.5, z'
loop_
_atom_type_symbol
_atom_type_oxidation_number
C4+	4
H1+	1
N3-	-3
Na1+	1
O2-	-2
P5+	5
loop_
_atom_site_label
_atom_site_type_symbol
_atom_site_symmetry_multiplicity
_atom_site_Wyckoff_symbol
_atom_site_fract_x
_atom_site_fract_y
_atom_site_fract_z
_atom_site_occupancy
_atom_site_attached_hydrogens
_atom_site_U_iso_or_equiv
P1 P5+ 4 e 0.0000 0.25082(3) 0.2500 1 0 0.01562(11) 
Na1 Na1+ 4 a 0.0000 0.0000 0.5000 1 0 0.01899(15) 
O1 O2- 8 f 0.02515(10) 0.19101(7) 0.44098(12) 1 0 0.02237(19) 
O2 O2- 8 f 0.30336(11) 0.47502(8) 0.18369(13) 1 0 0.0255(2) 
N1 N3- 8 f 0.15686(11) 0.33669(9) 0.27488(14) 1 0 0.0211(2) 
N2 N3- 8 f 0.13491(14) 0.37718(10) -0.05308(15) 1 0 0.0297(2) 
C1 C4+ 8 f 0.20334(13) 0.39970(9) 0.13499(16) 1 0 0.0187(2) 
H1 H1+ 8 f 0.217(2) 0.3452(16) 0.388(2) 1 0 0.037(5) 
H2 H1+ 8 f 0.081(2) 0.3158(13) -0.075(3) 1 0 0.040(5) 
H3 H1+ 8 f 0.172(2) 0.4133(15) -0.139(3) 1 0 0.045(5) 

loop_
_atom_site_aniso_label
_atom_site_aniso_type_symbol
_atom_site_aniso_U_11
_atom_site_aniso_U_22
_atom_site_aniso_U_33
_atom_site_aniso_U_12
_atom_site_aniso_U_13
_atom_site_aniso_U_23
P1 P5+ 0.01569(19) 0.01289(18) 0.01728(19) 0.000 0.00192(13) 0.000
Na1 Na1+ 0.0202(3) 0.0172(3) 0.0204(3) -0.0008(2) 0.0066(2) 0.0010(2)
O1 O2- 0.0245(4) 0.0182(4) 0.0234(4) 0.0010(3) 0.0038(3) 0.0061(3)
O2 O2- 0.0268(4) 0.0281(4) 0.0225(4) -0.0110(3) 0.0078(3) -0.0022(3)
N1 N3- 0.0205(4) 0.0259(5) 0.0153(4) -0.0080(4) 0.0011(3) 0.0005(3)
N2 N3- 0.0366(6) 0.0342(6) 0.0167(5) -0.0135(5) 0.0027(4) 0.0006(4)
C1 C4+ 0.0183(5) 0.0196(5) 0.0182(5) -0.0007(4) 0.0043(4) -0.0001(4)
#End of data_424129-ICSD


