data_110570-ICSD
#?2014 by Fachinformationszentrum Karlsruhe, and the U.S. Secretary of 
#Commerce on behalf of the United States.  All rights reserved.
_database_code_ICSD                110570
_audit_creation_date               2008/08/01
_chemical_name_systematic
;
Dimethylammonium Hexaaquaaluminium Bis(sulfate(VI))
;
_chemical_formula_structural
;
((C H3)2 N H2) (Al (H2 O)6) (S O4)2
;
_chemical_formula_sum              'C2 H20 Al1 N1 O14 S2'
_publ_section_title
;
Structural and dielectric investigations of partially deuterated 
DMAAS crystals
;
loop_
_citation_id
_citation_journal_abbrev
_citation_year
_citation_journal_volume
_citation_page_first
_citation_page_last
_citation_journal_id_ASTM
primary Kristallografiya 1994 39 1078 1087 KRISAJ
2 'Crystallography Reports' 1994 39 990 999 CYSTE3
_publ_author_name
;
Kirpichnikova, L.F.;Pietraszko, A.;Lukaszewicz, K.;Shuvalov, 
L.A.;Dolbinina, V.V.;Yakovleva, L.M.
;
_cell_length_a                     6.437
_cell_length_b                     10.684
_cell_length_c                     11.115
_cell_angle_alpha                  90
_cell_angle_beta                   99.82
_cell_angle_gamma                  90
_cell_volume                       753.21
_cell_formula_units_Z              2
_symmetry_space_group_name_H-M     'P 1 n 1'
_symmetry_Int_Tables_number        7
_refine_ls_R_factor_all            .041
loop_
_symmetry_equiv_pos_site_id
_symmetry_equiv_pos_as_xyz
  1	'x+.5, -y, z+.5'
  2	'x, y, z'
loop_
_atom_type_symbol
_atom_type_oxidation_number
Al3+	3
C4+	4
H1-	-1
H1+	1
N3-	-3
O2-	-2
S6+	6
loop_
_atom_site_label
_atom_site_type_symbol
_atom_site_symmetry_multiplicity
_atom_site_Wyckoff_symbol
_atom_site_fract_x
_atom_site_fract_y
_atom_site_fract_z
_atom_site_occupancy
_atom_site_attached_hydrogens
_atom_site_U_iso_or_equiv
S1 S6+ 2 a 0.5619(2) -0.4288(1) 0.7441(2) 1. 0 .019 
S2 S6+ 2 a -.0622(2) 0.0654(1) -0.2305(2) 1. 0 .019 
Al1 Al3+ 2 a 0.5 0.2507(1) 0.0062(2) 1. 0 .017 
O1 O2- 2 a 0.2916(4) 0.3276(3) -0.1131(3) 1. 0 .023 
O2 O2- 2 a 0.7029(4) 0.1745(3) 0.1262(3) 1. 0 .021 
O3 O2- 2 a 0.7216(4) 0.3183(3) -0.0619(3) 1. 0 .019 
O4 O2- 2 a 0.2752(4) 0.1818(3) 0.0729(3) 1. 0 .021 
O5 O2- 2 a 0.5042(4) 0.3977(3) 0.0985(3) 1. 0 .022 
O6 O2- 2 a 0.4945(4) 0.1052(3) -0.0886(3) 1. 0 .022 
O7 O2- 2 a 0.5501(4) -0.2918(3) 0.7229(3) 1. 0 .022 
O8 O2- 2 a 0.6919(4) -0.4504(3) 0.8652(3) 1. 0 .022 
O9 O2- 2 a 0.3474(4) -0.4781(3) 0.7445(3) 1. 0 .024 
O10 O2- 2 a 0.6562(4) -0.4903(3) 0.6477(3) 1. 0 .030 
O11 O2- 2 a -.0496(4) 0.2007(3) -0.2031(3) 1. 0 .024 
O12 O2- 2 a 0.1519(4) 0.0131(3) -0.2245(3) 1. 0 .026 
O13 O2- 2 a -.1835(4) 0.0460(3) -0.3526(3) 1. 0 .030 
O14 O2- 2 a -.1653(4) 0.0014(3) -0.1404(3) 1. 0 .029 
C1 C4+ 2 a 0.3791(5) 0.2231(4) 0.5833(4) 1. 0 .041 
C2 C4+ 2 a 0.6431(5) 0.2728(4) 0.4519(4) 1. 0 .035 
N1 N3- 2 a 0.4243(5) 0.2383(3) 0.4602(4) 1. 0 .033 
H1 H1+ 2 a 0.186(1) 0.284(1) -0.139(1) 1. 0 .02 
H2 H1+ 2 a 0.309(1) 0.385(1) -0.157(1) 1. 0 .05 
H3 H1+ 2 a 0.828(1) 0.202(1) 0.136(1) 1. 0 .04 
H4 H1+ 2 a 0.683(1) 0.116(1) 0.172(1) 1. 0 .05 
H5 H1+ 2 a 0.786(1) 0.270(1) -0.113(1) 1. 0 .03 
H6 H1+ 2 a 0.709(1) 0.394(1) -0.082(1) 1. 0 .05 
H7 H1+ 2 a 0.206(1) 0.212(1) 0.110(1) 1. 0 .04 
H8 H1+ 2 a 0.285(1) 0.105(1) 0.098(1) 1. 0 .05 
H9 H1+ 2 a 0.387(1) 0.411(1) 0.096(1) 1. 0 .06 
H10 H1+ 2 a 0.628(1) 0.438(1) 0.145(1) 1. 0 .05 
H11 H1+ 2 a 0.600(1) 0.086(1) -0.114(1) 1. 0 .06 
H12 H1+ 2 a 0.381(1) 0.059(1) -0.121(1) 1. 0 .05 
H13 H1- 2 a 0.752(1) 0.793(1) 0.075(1) 1. 0 .05 
H14 H1- 2 a 0.908(1) 0.711(1) 0.125(1) 1. 0 .05 
H15 H1- 2 a 0.947(1) 0.831(1) 0.117(1) 1. 0 .05 
H16 H1- 2 a 0.182(1) 0.655(1) -.020(1) 1. 0 .05 
H17 H1- 2 a 0.201(1) 0.786(1) -.012(1) 1. 0 .05 
H18 H1- 2 a 0.180(1) 0.712(1) -.116(1) 1. 0 .05 
H19 H1+ 2 a 0.843(1) 0.700(1) -.081(1) 1. 0 .05 
H20 H1+ 2 a 0.890(1) 0.834(1) -.085(1) 1. 0 .05 

#End of data_110570-ICSD


