data_380148-ICSD
#?2014 by Fachinformationszentrum Karlsruhe, and the U.S. Secretary of 
#Commerce on behalf of the United States.  All rights reserved.
_database_code_ICSD                380148
_audit_creation_date               1999/06/02
_chemical_name_systematic
;
Potassium Aquatriisothiocyanatomanganate
;
_chemical_formula_structural       'K (Mn (N C S)3 (H2 O))'
_chemical_formula_sum              'C3 H2 K1 Mn1 N3 O1 S3'
_publ_section_title
;
Koordinationsambidenz des Thiocyanations in 
Alkalithiocyanatomanganat(II)- Hydraten
;
loop_
_citation_id
_citation_journal_abbrev
_citation_year
_citation_journal_volume
_citation_page_first
_citation_page_last
_citation_journal_id_ASTM
primary 'Zeitschrift fuer Naturforschung, B: Chemical Sciences'
 1998 53 416 422 ZNBSEN
_publ_author_name
;
Biedermann, M.;Hartung, H.;Boehland, H.;Matthaeus, R.
;
_cell_length_a                     12.9393(15)
_cell_length_b                     11.1886(12)
_cell_length_c                     13.3057(13)
_cell_angle_alpha                  90.
_cell_angle_beta                   90.
_cell_angle_gamma                  90.
_cell_volume                       1926.3
_cell_formula_units_Z              8
_symmetry_space_group_name_H-M     'P b c a'
_symmetry_Int_Tables_number        61
_refine_ls_R_factor_all            .0412
loop_
_symmetry_equiv_pos_site_id
_symmetry_equiv_pos_as_xyz
  1	'x+.5, y, -z+.5'
  2	'x, -y+.5, z+.5'
  3	'-x+.5, y+.5, z'
  4	'-x, -y, -z'
  5	'-x+.5, -y, z+.5'
  6	'-x, y+.5, -z+.5'
  7	'x+.5, -y+.5, -z'
  8	'x, y, z'
loop_
_atom_type_symbol
_atom_type_oxidation_number
C4+	4
H1+	1
K1+	1
Mn2+	2
N3-	-3
O2-	-2
S2-	-2
loop_
_atom_site_label
_atom_site_type_symbol
_atom_site_symmetry_multiplicity
_atom_site_Wyckoff_symbol
_atom_site_fract_x
_atom_site_fract_y
_atom_site_fract_z
_atom_site_occupancy
_atom_site_attached_hydrogens
_atom_site_U_iso_or_equiv
Mn1 Mn2+ 8 c 0.19299(2) 0.12830(2) 0.05277(2) 1. 0 0 
S1 S2- 8 c -.15664(4) 0.00018(5) 0.11936(4) 1. 0 0 
S2 S2- 8 c 0.49961(4) 0.06419(5) -.14515(4) 1. 0 0 
S3 S2- 8 c 0.24462(4) -.26107(4) 0.22088(4) 1. 0 0 
O1 O2- 8 c 0.15443(13) 0.30544(13) -.02345(12) 1. 0 0 
N1 N3- 8 c 0.02845(15) 0.1224(2) 0.0834(2) 1. 0 0 
N2 N3- 8 c 0.34184(15) 0.1420(2) -.0177(2) 1. 0 0 
N3 N3- 8 c 0.2159(2) -.0354(2) 0.13497(13) 1. 0 0 
C1 C4+ 8 c -.0484(2) 0.0723(2) 0.0968(2) 1. 0 0 
C2 C4+ 8 c 0.40670(15) 0.1094(2) -.07125(15) 1. 0 0 
C3 C4+ 8 c 0.22906(15) -.1272(2) 0.17109(14) 1. 0 0 
H1 H1+ 8 c 0.1249(26) 0.3461(26) 0.0146(24) 1. 0 0.056(9) 
H2 H1+ 8 c 0.2103(32) 0.3452(34) -.0461(27) 1. 0 0.084(13) 
K1 K1+ 8 c 0.00844(5) 0.26490(6) -.17441(6) 1. 0 0 

loop_
_atom_site_aniso_label
_atom_site_aniso_type_symbol
_atom_site_aniso_U_11
_atom_site_aniso_U_22
_atom_site_aniso_U_33
_atom_site_aniso_U_12
_atom_site_aniso_U_13
_atom_site_aniso_U_23
Mn1 Mn2+ 0.02472(14) 0.02140(14) 0.0326(2) 0.00044(10) 0.00274(11) 
0.00220(11)
S1 S2- 0.0336(2) 0.0359(3) 0.0319(2) -.0091(2) 0.0070(2) -.0039(2)
S2 S2- 0.0364(3) 0.0360(3) 0.0378(3) 0.0010(2) 0.0085(2) -.0018(2)
S3 S2- 0.0425(3) 0.0234(2) 0.0290(2) 0.0023(2) 0.0015(2) 0.0040(2)
O1 O2- 0.0355(8) 0.0263(6) 0.0347(8) 0.0007(6) -.0020(7) 0.0006(6)
N1 N3- 0.0307(8) 0.0318(9) 0.0617(13) -.0017(7) 0.0053(9) -.0077(9)
N2 N3- 0.0312(9) 0.0443(10) 0.0411(10) -.0008(8) 0.0071(8) 0.0052(8)
N3 N3- 0.0469(10) 0.0266(8) 0.0361(9) 0.0030(7) 0.0025(8) 0.0038(7)
C1 C4+ 0.0302(9) 0.0253(8) 0.0328(9) 0.0018(7) 0.0017(8) -.0044(7)
C2 C4+ 0.0261(8) 0.0307(9) 0.0307(9) -.0041(7) -.0013(7) 0.0053(7)
C3 C4+ 0.0309(9) 0.0246(8) 0.0256(8) 0.0004(7) 0.0019(7) -.0017(6)
K1 K1+ 0.0493(3) 0.0597(4) 0.0704(4) 0.0040(3) -.0192(3) -.0221(3)
#End of data_380148-ICSD


