data_240373-ICSD
#?2014 by Fachinformationszentrum Karlsruhe, and the U.S. Secretary of 
#Commerce on behalf of the United States.  All rights reserved.
_database_code_ICSD                240373
_audit_creation_date               2007/04/01
_chemical_name_systematic
;
Potassium Tris(bis(trimethylsilyl))amide Trimethyldisilylamide 
Ytterbate(II)
;
_chemical_formula_structural
;
K Yb (N ((Si (C H3)3)2)3) (N (C H3)3 Si2)
;
_chemical_formula_sum              'C21 H63 K1 N2 Si8 Yb1'
_publ_section_title
;
Reactions of Hypersilyl Potassium with Rare-Earth Metal 
Bis(Trimethylsilylamides): Addition versus Peripheral Deprotonation
;
loop_
_citation_id
_citation_journal_abbrev
_citation_year
_citation_journal_volume
_citation_journal_issue
_citation_page_first
_citation_page_last
_citation_journal_id_ASTM
primary 'Inorganic Chemistry' 2006 45 22 9085 9095 INOCAJ
_publ_author_name                  'Niemeyer, M.'
_cell_length_a                     21.048(5)
_cell_length_b                     12.557(2)
_cell_length_c                     17.440(4)
_cell_angle_alpha                  90.00
_cell_angle_beta                   115.260(12)
_cell_angle_gamma                  90.00
_cell_volume                       4168.64
_cell_formula_units_Z              4
_symmetry_space_group_name_H-M     'P 1 21/c 1'
_symmetry_Int_Tables_number        14
_refine_ls_R_factor_all            .0478
loop_
_symmetry_equiv_pos_site_id
_symmetry_equiv_pos_as_xyz
  1	'x, -y+.5, z+.5'
  2	'-x, -y, -z'
  3	'-x, y+.5, -z+.5'
  4	'x, y, z'
loop_
_atom_type_symbol
_atom_type_oxidation_number
C1.6+	1.6
H1-	-1
K1+	1
N3-	-3
Si4+	4
Yb2+	2
loop_
_atom_site_label
_atom_site_type_symbol
_atom_site_symmetry_multiplicity
_atom_site_Wyckoff_symbol
_atom_site_fract_x
_atom_site_fract_y
_atom_site_fract_z
_atom_site_occupancy
_atom_site_attached_hydrogens
_atom_site_U_iso_or_equiv
K1 K1+ 4 e 0.26110(4) 0.52697(6) 0.48769(5) 1 0 0.04229(19) 
Yb1 Yb2+ 4 e 0.251955(7) 0.823474(11) 0.487933(9) 1 0 0.02556(4) 
N1 N3- 4 e 0.15874(14) 0.6986(2) 0.43976(16) 1 0 0.0276(6) 
N2 N3- 4 e 0.35295(14) 0.7122(2) 0.53923(16) 1 0 0.0277(6) 
Si1 Si4+ 4 e 0.24384(4) 1.06514(7) 0.48264(5) 1 0 0.02465(17) 
Si2 Si4+ 4 e 0.24686(6) 1.14888(8) 0.36321(6) 1 0 0.0350(2) 
Si3 Si4+ 4 e 0.13815(5) 1.12774(8) 0.48539(6) 1 0 0.0343(2) 
Si4 Si4+ 4 e 0.33377(5) 1.14916(7) 0.59589(6) 1 0 0.0318(2) 
Si5 Si4+ 4 e 0.10849(5) 0.66452(8) 0.49331(6) 1 0 0.0332(2) 
Si6 Si4+ 4 e 0.13039(5) 0.70479(7) 0.33278(6) 1 0 0.0298(2) 
Si7 Si4+ 4 e 0.40464(5) 0.69673(8) 0.48523(6) 1 0 0.0343(2) 
Si8 Si4+ 4 e 0.38037(5) 0.71885(8) 0.64601(6) 1 0 0.0305(2) 
C1 C1.6+ 4 e 0.1609(2) 1.1285(4) 0.2686(2) 1 0 0.0581(12) 
H1 H1- 4 e 0.1648 1.1532 0.2174 1 0 0.091(3) 
H2 H1- 4 e 0.1241 1.1691 0.2759 1 0 0.091(3) 
H3 H1- 4 e 0.1488 1.0527 0.2628 1 0 0.091(3) 
C2 C1.6+ 4 e 0.3185(3) 1.0945(4) 0.3344(3) 1 0 0.0660(13) 
H4 H1- 4 e 0.3200 1.1366 0.2878 1 0 0.091(3) 
H5 H1- 4 e 0.3084 1.0200 0.3167 1 0 0.091(3) 
H6 H1- 4 e 0.3641 1.0991 0.3839 1 0 0.091(3) 
C3 C1.6+ 4 e 0.2614(2) 1.2992(3) 0.3724(3) 1 0 0.0527(11) 
H7 H1- 4 e 0.2585 1.3272 0.3186 1 0 0.091(3) 
H8 H1- 4 e 0.3079 1.3146 0.4178 1 0 0.091(3) 
H9 H1- 4 e 0.2252 1.3328 0.3856 1 0 0.091(3) 
C4 C1.6+ 4 e 0.1177(2) 1.2730(3) 0.4574(3) 1 0 0.0561(11) 
H10 H1- 4 e 0.0727 1.2909 0.4582 1 0 0.091(3) 
H11 H1- 4 e 0.1148 1.2862 0.4006 1 0 0.091(3) 
H12 H1- 4 e 0.1549 1.3172 0.4988 1 0 0.091(3) 
C5 C1.6+ 4 e 0.1373(2) 1.1085(4) 0.5922(3) 1 0 0.0595(12) 
H13 H1- 4 e 0.0901 1.1234 0.5877 1 0 0.091(3) 
H14 H1- 4 e 0.1711 1.1573 0.6333 1 0 0.091(3) 
H15 H1- 4 e 0.1502 1.0349 0.6110 1 0 0.091(3) 
C6 C1.6+ 4 e 0.06080(19) 1.0502(3) 0.4083(3) 1 0 0.0507(10) 
H16 H1- 4 e 0.0184 1.0709 0.4146 1 0 0.091(3) 
H17 H1- 4 e 0.0693 0.9738 0.4197 1 0 0.091(3) 
H18 H1- 4 e 0.0543 1.0654 0.3503 1 0 0.091(3) 
C7 C1.6+ 4 e 0.4205(2) 1.1302(4) 0.5864(3) 1 0 0.0600(12) 
H19 H1- 4 e 0.4595 1.1550 0.6385 1 0 0.091(3) 
H20 H1- 4 e 0.4193 1.1713 0.5380 1 0 0.091(3) 
H21 H1- 4 e 0.4270 1.0546 0.5778 1 0 0.091(3) 
C8 C1.6+ 4 e 0.3451(2) 1.0932(3) 0.7007(2) 1 0 0.0525(11) 
H22 H1- 4 e 0.3782 1.1376 0.7466 1 0 0.091(3) 
H23 H1- 4 e 0.3635 1.0205 0.7067 1 0 0.091(3) 
H24 H1- 4 e 0.2996 1.0922 0.7036 1 0 0.091(3) 
C9 C1.6+ 4 e 0.3245(3) 1.2986(3) 0.6058(3) 1 0 0.0659(15) 
H25 H1- 4 e 0.3622 1.3240 0.6588 1 0 0.091(3) 
H26 H1- 4 e 0.2788 1.3140 0.6059 1 0 0.091(3) 
H27 H1- 4 e 0.3276 1.3349 0.5577 1 0 0.091(3) 
C10 C1.6+ 4 e 0.1537(2) 0.5605(3) 0.5761(2) 1 0 0.0424(9) 
H28 H1- 4 e 0.1527 0.4921 0.5484 1 0 0.073(3) 
H29 H1- 4 e 0.1294 0.5532 0.6129 1 0 0.073(3) 
H30 H1- 4 e 0.2026 0.5817 0.6101 1 0 0.073(3) 
C11 C1.6+ 4 e 0.0196(2) 0.6080(5) 0.4274(3) 1 0 0.0708(15) 
H31 H1- 4 e -0.0092 0.6615 0.3864 1 0 0.073(3) 
H32 H1- 4 e -0.0030 0.5878 0.4642 1 0 0.073(3) 
H33 H1- 4 e 0.0243 0.5450 0.3971 1 0 0.073(3) 
C12 C1.6+ 4 e 0.0934(2) 0.7816(3) 0.5519(3) 1 0 0.0534(11) 
H34 H1- 4 e 0.0627 0.8335 0.5109 1 0 0.073(3) 
H35 H1- 4 e 0.1386 0.8152 0.5873 1 0 0.073(3) 
H36 H1- 4 e 0.0712 0.7567 0.5878 1 0 0.073(3) 
C13 C1.6+ 4 e 0.19631(19) 0.7896(3) 0.3093(2) 1 0 0.0392(9) 
H37 H1- 4 e 0.2433 0.7583 0.3378 1 0 0.061(5) 
H38 H1- 4 e 0.1970 0.8622 0.3301 1 0 0.061(5) 
H39 H1- 4 e 0.1822 0.7913 0.2480 1 0 0.061(5) 
C14 C1.6+ 4 e 0.04346(18) 0.7702(3) 0.2728(2) 1 0 0.0441(9) 
H40 H1- 4 e 0.0061 0.7238 0.2730 1 0 0.073(3) 
H41 H1- 4 e 0.0363 0.7828 0.2142 1 0 0.073(3) 
H42 H1- 4 e 0.0424 0.8383 0.2997 1 0 0.073(3) 
C15 C1.6+ 4 e 0.1297(2) 0.5709(3) 0.2834(2) 1 0 0.0520(11) 
H43 H1- 4 e 0.1028 0.5201 0.3005 1 0 0.073(3) 
H44 H1- 4 e 0.1780 0.5452 0.3025 1 0 0.073(3) 
H45 H1- 4 e 0.1080 0.5778 0.2215 1 0 0.073(3) 
C16 C1.6+ 4 e 0.3687(2) 0.5882(3) 0.4031(3) 1 0 0.0536(11) 
H46 H1- 4 e 0.3744 0.5191 0.4314 1 0 0.073(3) 
H47 H1- 4 e 0.3942 0.5878 0.3674 1 0 0.073(3) 
H48 H1- 4 e 0.3187 0.6012 0.3677 1 0 0.073(3) 
C17 C1.6+ 4 e 0.4991(2) 0.6593(4) 0.5495(3) 1 0 0.0617(13) 
H49 H1- 4 e 0.5244 0.7199 0.5847 1 0 0.073(3) 
H50 H1- 4 e 0.5205 0.6398 0.5114 1 0 0.073(3) 
H51 H1- 4 e 0.5016 0.5986 0.5861 1 0 0.073(3) 
C18 C1.6+ 4 e 0.4058(2) 0.8228(3) 0.4273(3) 1 0 0.0537(11) 
H52 H1- 4 e 0.4262 0.8806 0.4683 1 0 0.073(3) 
H53 H1- 4 e 0.3576 0.8417 0.3880 1 0 0.073(3) 
H54 H1- 4 e 0.4340 0.8117 0.3955 1 0 0.073(3) 
C19 C1.6+ 4 e 0.30649(19) 0.7829(3) 0.6676(2) 1 0 0.0399(8) 
H55 H1- 4 e 0.3000 0.8570 0.6480 1 0 0.061(5) 
H56 H1- 4 e 0.3192 0.7810 0.7286 1 0 0.061(5) 
H57 H1- 4 e 0.2627 0.7433 0.6371 1 0 0.061(5) 
C20 C1.6+ 4 e 0.4599(2) 0.8035(3) 0.7032(3) 1 0 0.0503(11) 
H58 H1- 4 e 0.5018 0.7654 0.7069 1 0 0.073(3) 
H59 H1- 4 e 0.4646 0.8190 0.7604 1 0 0.073(3) 
H60 H1- 4 e 0.4551 0.8703 0.6721 1 0 0.073(3) 
C21 C1.6+ 4 e 0.3962(2) 0.5836(3) 0.6974(2) 1 0 0.0513(11) 
H61 H1- 4 e 0.4330 0.5468 0.6873 1 0 0.073(3) 
H62 H1- 4 e 0.3528 0.5419 0.6731 1 0 0.073(3) 
H63 H1- 4 e 0.4112 0.5917 0.7586 1 0 0.073(3) 

loop_
_atom_site_aniso_label
_atom_site_aniso_type_symbol
_atom_site_aniso_U_11
_atom_site_aniso_U_22
_atom_site_aniso_U_33
_atom_site_aniso_U_12
_atom_site_aniso_U_13
_atom_site_aniso_U_23
K1 K1+ 0.0525(5) 0.0231(4) 0.0467(5) 0.0037(3) 0.0168(4) 0.0002(3)
Yb1 Yb2+ 0.02579(7) 0.01835(6) 0.02810(7) 0.00048(6) 0.00724(5) -0.00013(6)
N1 N3- 0.0306(14) 0.0274(15) 0.0228(13) -0.0044(11) 0.0094(11) -0.0004(10)
N2 N3- 0.0305(14) 0.0270(14) 0.0244(13) 0.0044(11) 0.0106(11) 0.0014(11)
Si1 Si4+ 0.0319(4) 0.0185(4) 0.0203(4) 0.0011(3) 0.0079(3) -0.0004(3)
Si2 Si4+ 0.0533(6) 0.0265(5) 0.0265(5) 0.0055(4) 0.0184(4) 0.0037(4)
Si3 Si4+ 0.0348(5) 0.0294(5) 0.0374(5) 0.0014(4) 0.0140(4) -0.0050(4)
Si4 Si4+ 0.0370(5) 0.0237(5) 0.0257(4) -0.0031(4) 0.0048(4) -0.0014(3)
Si5 Si4+ 0.0334(5) 0.0354(5) 0.0300(5) -0.0073(4) 0.0130(4) 0.0023(4)
Si6 Si4+ 0.0348(5) 0.0290(5) 0.0208(4) -0.0005(4) 0.0074(4) -0.0037(3)
Si7 Si4+ 0.0323(5) 0.0405(6) 0.0315(5) 0.0119(4) 0.0149(4) 0.0081(4)
Si8 Si4+ 0.0356(5) 0.0275(4) 0.0230(4) -0.0004(4) 0.0073(4) 0.0011(4)
C1 C1.6+ 0.084(3) 0.050(3) 0.0250(19) 0.004(2) 0.008(2) 0.0038(18)
C2 C1.6+ 0.096(4) 0.066(3) 0.062(3) 0.022(3) 0.058(3) 0.019(2)
C3 C1.6+ 0.079(3) 0.032(2) 0.050(2) -0.0078(19) 0.029(2) 0.0046(17)
C4 C1.6+ 0.047(2) 0.033(2) 0.080(3) 0.0105(19) 0.020(2) -0.004(2)
C5 C1.6+ 0.064(3) 0.073(3) 0.053(3) -0.002(2) 0.036(2) -0.009(2)
C6 C1.6+ 0.036(2) 0.050(3) 0.056(2) -0.0065(18) 0.0107(18) -0.003(2)
C7 C1.6+ 0.036(2) 0.082(3) 0.051(3) -0.008(2) 0.0087(19) -0.006(2)
C8 C1.6+ 0.070(3) 0.050(3) 0.0255(18) -0.010(2) 0.0089(18) -0.0029(17)
C9 C1.6+ 0.089(4) 0.026(2) 0.050(3) -0.002(2) -0.001(2) -0.0065(17)
C10 C1.6+ 0.059(2) 0.033(2) 0.038(2) -0.0071(17) 0.0242(18) 0.0028(16)
C11 C1.6+ 0.047(3) 0.107(4) 0.051(3) -0.033(3) 0.015(2) 0.008(3)
C12 C1.6+ 0.067(3) 0.050(2) 0.058(3) 0.012(2) 0.042(2) 0.009(2)
C13 C1.6+ 0.042(2) 0.055(2) 0.0216(16) -0.0019(17) 0.0146(15) 0.0024(15)
C14 C1.6+ 0.037(2) 0.056(3) 0.0285(18) 0.0060(18) 0.0043(15) -0.0002(17)
C15 C1.6+ 0.069(3) 0.042(2) 0.034(2) 0.000(2) 0.0105(19) -0.0145(17)
C16 C1.6+ 0.067(3) 0.055(3) 0.048(2) 0.015(2) 0.033(2) -0.002(2)
C17 C1.6+ 0.038(2) 0.086(4) 0.057(3) 0.023(2) 0.0152(19) 0.014(2)
C18 C1.6+ 0.051(2) 0.058(3) 0.061(3) 0.004(2) 0.032(2) 0.020(2)
C19 C1.6+ 0.047(2) 0.046(2) 0.0251(18) -0.0065(17) 0.0135(16) -0.0072(15)
C20 C1.6+ 0.041(2) 0.044(3) 0.049(2) -0.0045(17) 0.0028(18) -0.0089(18)
C21 C1.6+ 0.076(3) 0.037(2) 0.0298(19) 0.002(2) 0.0125(19) 0.0066(16)
#End of data_240373-ICSD


