data_261772-ICSD
#?2014 by Fachinformationszentrum Karlsruhe, and the U.S. Secretary of 
#Commerce on behalf of the United States.  All rights reserved.
_database_code_ICSD                261772
_audit_creation_date               2012/02/01
_audit_update_record               2013/08/01
_chemical_name_systematic
;
Silver Europium Oxalate Sulfate(VI) Dihydrate
;
_chemical_formula_structural       'Ag Eu (C2 O4) (S O4) (H2 O)2'
_chemical_formula_sum              'C2 H4 Ag1 Eu1 O10 S1'
_publ_section_title
;
Organic-inorganic hybrid lanthanide-silver heterometallic 
coordination frameworks constructed from oxalate and sulfate anion: 
syntheses, structures, and photoluminescent properties
;
loop_
_citation_id
_citation_journal_abbrev
_citation_year
_citation_journal_volume
_citation_journal_issue
_citation_page_first
_citation_page_last
_citation_journal_id_ASTM
primary 'Zeitschrift fuer Anorganische und Allgemeine Chemie (1950) (DE)'
 2011 637 6 741 747 ZAACAB
_publ_author_name
;
Xiao Xueying;Wei Yongqin;Zheng Wenxu;Wu Kechen
;
_cell_length_a                     6.627(3)
_cell_length_b                     13.848(5)
_cell_length_c                     8.983(4)
_cell_angle_alpha                  90.00
_cell_angle_beta                   96.985(6)
_cell_angle_gamma                  90.00
_cell_volume                       818.26
_cell_formula_units_Z              4
_symmetry_space_group_name_H-M     'P 1 21/c 1'
_symmetry_Int_Tables_number        14
_refine_ls_R_factor_all            .0216
loop_
_symmetry_equiv_pos_site_id
_symmetry_equiv_pos_as_xyz
  1	'x, -y+.5, z+.5'
  2	'-x, -y, -z'
  3	'-x, y+.5, -z+.5'
  4	'x, y, z'
loop_
_atom_type_symbol
_atom_type_oxidation_number
Ag1+	1
C3+	3
Eu3+	3
H1+	1
O2-	-2
S6+	6
loop_
_atom_site_label
_atom_site_type_symbol
_atom_site_symmetry_multiplicity
_atom_site_Wyckoff_symbol
_atom_site_fract_x
_atom_site_fract_y
_atom_site_fract_z
_atom_site_occupancy
_atom_site_attached_hydrogens
_atom_site_U_iso_or_equiv
Eu1 Eu3+ 4 e 0.22560(3) 0.910886(12) 0.286320(19) 1 0 0.00987(10) 
Ag1 Ag1+ 4 e 0.71427(6) 0.75232(4) 0.77483(5) 1 0 0.04530(16) 
S1 S6+ 4 e 0.27036(13) 0.97252(7) 0.69042(10) 1 0 0.01062(18) 
O1 O2- 4 e 0.4421(4) 0.7936(2) 0.4487(3) 1 0 0.0155(5) 
O2 O2- 4 e 0.4312(4) 0.6873(2) 0.6353(3) 1 0 0.0168(6) 
O3 O2- 4 e 0.0426(4) 0.7699(2) 0.3688(3) 1 0 0.0167(6) 
O4 O2- 4 e 0.0323(5) 0.6669(2) 0.5607(3) 1 0 0.0213(6) 
O5 O2- 4 e 0.1700(4) 0.9258(2) 0.5517(3) 1 0 0.0161(6) 
O6 O2- 4 e 0.3512(6) 0.9010(2) 0.7992(4) 1 0 0.0297(8) 
O7 O2- 4 e 0.1176(5) 1.0338(3) 0.7516(4) 1 0 0.0284(7) 
O8 O2- 4 e 0.4348(4) 1.0352(2) 0.6493(3) 1 0 0.0177(6) 
C1 C3+ 4 e 0.3522(6) 0.7355(3) 0.5240(4) 1 0 0.0108(7) 
C2 C3+ 4 e 0.1227(6) 0.7216(3) 0.4812(4) 1 0 0.0122(7) 
O9 O2- 4 e 0.2687(5) 1.0156(2) 0.0774(3) 1 0 0.0276(7) 
H1 H1+ 4 e 0.3663 1.0554 0.0950 1 0 0.041 
H2 H1+ 4 e 0.2013 1.0280 -0.0070 1 0 0.041 
O10 O2- 4 e 0.2221(5) 1.09336(19) 0.3660(3) 1 0 0.0185(6) 
H3 H1+ 4 e 0.3174 1.1055 0.4356 1 0 0.028 
H4 H1+ 4 e 0.1083 1.0965 0.4005 1 0 0.028 

loop_
_atom_site_aniso_label
_atom_site_aniso_type_symbol
_atom_site_aniso_U_11
_atom_site_aniso_U_22
_atom_site_aniso_U_33
_atom_site_aniso_U_12
_atom_site_aniso_U_13
_atom_site_aniso_U_23
Eu1 Eu3+ 0.00885(13) 0.01259(13) 0.00821(12) 0.00008(6) 0.00114(7) 
-0.00036(6)
Ag1 Ag1+ 0.0176(2) 0.0595(3) 0.0543(3) -0.01381(17) -0.01357(19) 0.0236(2)
S1 S6+ 0.0095(4) 0.0135(4) 0.0090(4) -0.0005(3) 0.0018(3) -0.0013(3)
O1 O2- 0.0135(13) 0.0168(13) 0.0165(13) 0.0006(10) 0.0021(10) 0.0034(10)
O2 O2- 0.0111(13) 0.0235(14) 0.0152(13) -0.0024(11) -0.0008(10) 0.0074(11)
O3 O2- 0.0148(14) 0.0176(13) 0.0161(13) -0.0028(11) -0.0044(10) 0.0046(11)
O4 O2- 0.0156(14) 0.0287(16) 0.0192(14) -0.0056(12) 0.0008(11) 0.0109(12)
O5 O2- 0.0166(14) 0.0188(13) 0.0131(13) -0.0036(11) 0.0022(11) -0.0066(10)
O6 O2- 0.033(2) 0.0282(17) 0.0248(17) -0.0053(14) -0.0078(15) 0.0145(13)
O7 O2- 0.0125(14) 0.0420(19) 0.0307(17) 0.0032(13) 0.0024(12) -0.0236(15)
O8 O2- 0.0136(14) 0.0227(14) 0.0166(13) -0.0066(11) 0.0015(11) 0.0016(11)
C1 C3+ 0.0114(17) 0.0125(16) 0.0088(15) 0.0009(13) 0.0023(13) -0.0022(13)
C2 C3+ 0.0127(17) 0.0140(17) 0.0096(16) -0.0005(14) -0.0002(13) 0.0003(13)
O9 O2- 0.0376(19) 0.0329(17) 0.0123(13) 0.0010(14) 0.0025(13) 0.0061(12)
O10 O2- 0.0149(14) 0.0234(15) 0.0170(14) 0.0001(11) 0.0007(11) -0.0017(10)
#End of data_261772-ICSD


