data_14186-ICSD
#?2014 by Fachinformationszentrum Karlsruhe, and the U.S. Secretary of 
#Commerce on behalf of the United States.  All rights reserved.
_database_code_ICSD                14186
_audit_creation_date               1980/12/31
_chemical_name_systematic
;
Calcium Pentacyanonitrosoferrate(III) Tetrahydrate
;
_chemical_formula_structural       'Ca (Fe (C N)5 (N O)) (H2 O)4'
_chemical_formula_sum              'C5 H8 Ca1 Fe1 N6 O5'
_publ_section_title
;
Structure of Calcium Nitroprusside Tetrahydrate
;
loop_
_citation_id
_citation_journal_abbrev
_citation_year
_citation_journal_volume
_citation_page_first
_citation_page_last
_citation_journal_id_ASTM
primary 'Acta Crystallographica B (24,1968-38,1982)' 1980 36 1472 1475 ACBCAR
_publ_author_name
;
Punte, G.;Rigotti, G.;Rivero, B.E.;Podjarny, A.D.
;
_cell_length_a                     7.68(3)
_cell_length_b                     9.02(2)
_cell_length_c                     10.33(3)
_cell_angle_alpha                  78.17(1)
_cell_angle_beta                   68.28(1)
_cell_angle_gamma                  78.57(1)
_cell_volume                       644.76
_cell_formula_units_Z              2
_symmetry_space_group_name_H-M     'P -1'
_symmetry_Int_Tables_number        2
_refine_ls_R_factor_all            .041
loop_
_symmetry_equiv_pos_site_id
_symmetry_equiv_pos_as_xyz
  1	'-x, -y, -z'
  2	'x, y, z'
loop_
_atom_type_symbol
_atom_type_oxidation_number
C2+	2
Ca2+	2
Fe3+	3
H1+	1
N3-	-3
N2+	2
O2-	-2
loop_
_atom_site_label
_atom_site_type_symbol
_atom_site_symmetry_multiplicity
_atom_site_Wyckoff_symbol
_atom_site_fract_x
_atom_site_fract_y
_atom_site_fract_z
_atom_site_occupancy
_atom_site_attached_hydrogens
Fe1 Fe3+ 2 i 0.3710(1) 0.2049(1) 0.1766(1) 1. 0 
Ca1 Ca2+ 2 i 0.0691(1) 0.2515(1) -.2671(1) 1. 0 
C1 C2+ 2 i 0.5185(5) 0.3414(4) 0.2017(4) 1. 0 
C2 C2+ 2 i 0.5706(4) 0.0407(4) 0.1928(3) 1. 0 
C3 C2+ 2 i 0.2090(4) 0.0578(4) 0.1902(3) 1. 0 
C4 C2+ 2 i 0.1651(4) 0.3718(4) 0.1944(3) 1. 0 
C5 C2+ 2 i 0.2740(4) 0.1682(3) 0.3800(4) 1. 0 
N1 N3- 2 i 0.6071(5) 0.4166(4) 0.2204(4) 1. 0 
N2 N3- 2 i 0.6913(4) -.0512(3) 0.2043(3) 1. 0 
N3 N3- 2 i 0.1143(4) -.0302(3) 0.2020(3) 1. 0 
N4 N3- 2 i 0.0521(4) 0.4775(3) 0.2070(3) 1. 0 
N5 N3- 2 i 0.2185(4) 0.1494(4) 0.5017(3) 1. 0 
N6 N2+ 2 i 0.4557(4) 0.2381(3) 0.0013(3) 1. 0 
O1 O2- 2 i 0.5152(4) 0.2641(3) -.1175(3) 1. 0 
O2 O2- 2 i 0.6632(4) 0.6174(3) 0.3883(3) 1. 0 
O3 O2- 2 i 0.8571(4) 0.3640(3) 0.6094(3) 1. 0 
O4 O2- 2 i -.0403(5) 0.2390(3) -.0162(3) 1. 0 
O5 O2- 2 i 0.7066(4) 0.2156(3) 0.4713(4) 1. 0 
H1 H1+ 2 i 0.6555(74) 0.5483(49) 0.3284(49) 1. 0 
H2 H1+ 2 i 0.5436(58) 0.6773(75) 0.4060(77) 1. 0 
H3 H1+ 2 i 0.8067(76) 0.4656(34) 0.6065(61) 1. 0 
H4 H1+ 2 i 0.8268(73) 0.3162(55) 0.5541(49) 1. 0 
H5 H1+ 2 i -.0954(81) 0.322(5) 0.0271(61) 1. 0 
H6 H1+ 2 i -.0480(81) 0.1548(45) 0.0477(48) 1. 0 
H7 H1+ 2 i 0.7386(4) 0.1042(3) 0.4757(4) 1. 0 
H8 H1+ 2 i 0.7179(4) 0.2521(3) 0.3809(4) 1. 0 

loop_
_atom_site_aniso_label
_atom_site_aniso_type_symbol
_atom_site_aniso_U_11
_atom_site_aniso_U_22
_atom_site_aniso_U_33
_atom_site_aniso_U_12
_atom_site_aniso_U_13
_atom_site_aniso_U_23
Fe1 Fe3+ 0.019 0.0155 0.0167 -.0045 -.0095 -.0015
Ca1 Ca2+ 0.0201 0.0171 0.0171 -.0054 -.0092 -.0011
C1 C2+ 0.0314 0.0241 0.0304 -.006 -.0168 -.003
C2 C2+ 0.0241 0.0213 0.0229 -.0067 -.0107 -.0009
C3 C2+ 0.0256 0.0212 0.0197 -.0034 -.0104 -.0016
C4 C2+ 0.0267 0.0258 0.0226 -.0079 -.0106 -.0031
C5 C2+ 0.0272 0.0214 0.0282 -.0049 -.0144 -.0069
N1 N3- 0.0251 0.0162 0.0292 -.0019 -.0119 -.0024
N2 N3- 0.0498 0.0388 0.0609 -.0163 -.0316 -.0079
N3 N3- 0.0334 0.0319 0.0364 -.003 -.0174 -.0021
N4 N3- 0.0357 0.0275 0.0321 -.0152 -.012 0.0001
N5 N3- 0.0394 0.0243 0.0442 0.0038 -.021 -.0073
N6 N2+ 0.041 0.0437 0.0183 -.0092 -.0094 -.0073
O1 O2- 0.0693 0.0469 0.0158 -.006 -.0078 0
O2 O2- 0.0332 0.0367 0.0497 -.0168 -.0065 -.0163
O3 O2- 0.0508 0.0371 0.0585 0.0092 -.0407 -.0141
O4 O2- 0.0786 0.0347 0.0227 0.003 -.013 -.0046
O5 O2- 0.0623 0.0446 0.0532 -.005 -.0323 -.0037
#End of data_14186-ICSD


