data_410749-ICSD
#?2014 by Fachinformationszentrum Karlsruhe, and the U.S. Secretary of 
#Commerce on behalf of the United States.  All rights reserved.
_database_code_ICSD                410749
_audit_creation_date               1999/11/30
_audit_update_record               2013/02/01
_chemical_name_systematic
;
Disodium Tetrarubidium Mue-nitrido-
pentacyanomanganate(V)pentcyanomanganate(II) Hexahydrate
;
_chemical_formula_structural
;
Na2 Rb4 (((C N)5 Mn) N (Mn (C N)5)) (H2 O)6
;
_chemical_formula_sum              'C10 H12 Mn2 N11 Na2 O6 Rb4'
_publ_section_title
;
The mixed-valent (mue-nitrido)dimanganese complex anion ((C N)5 Mn(V) 
(mue-N) Mn(II) (C N)5)6-
;
loop_
_citation_id
_citation_journal_abbrev
_citation_year
_citation_journal_volume
_citation_page_first
_citation_page_last
_citation_journal_id_ASTM
primary 'Angewandte Chemie. International Edition' 1999 38 2766 2768 ACIEF5
_publ_author_name
;
Bendix, J.;Weyhermueller, T.;Bill, E.;Wieghardt, K.
;
_cell_length_a                     17.1020(20)
_cell_length_b                     16.6620(20)
_cell_length_c                     9.0070(8)
_cell_angle_alpha                  90.
_cell_angle_beta                   90.
_cell_angle_gamma                  90.
_cell_volume                       2566.58
_cell_formula_units_Z              4
_symmetry_space_group_name_H-M     'C m c a'
_symmetry_Int_Tables_number        64
_refine_ls_R_factor_all            .0294
loop_
_symmetry_equiv_pos_site_id
_symmetry_equiv_pos_as_xyz
  1	'-x, -y+.5, z+.5'
  2	'-x, y+.5, -z+.5'
  3	'-x, y, z'
  4	'-x, -y, -z'
  5	'x, y+.5, -z+.5'
  6	'x, -y+.5, z+.5'
  7	'x, -y, -z'
  8	'x, y, z'
  9	'-x+.5, -y, z+.5'
 10	'-x+.5, y, -z+.5'
 11	'-x+.5, y+.5, z'
 12	'-x+.5, -y+.5, -z'
 13	'x+.5, y, -z+.5'
 14	'x+.5, -y, z+.5'
 15	'x+.5, -y+.5, -z'
 16	'x+.5, y+.5, z'
loop_
_atom_type_symbol
_atom_type_oxidation_number
C2+	2
H1+	1
Mn3.5+	3.5
N3-	-3
Na1+	1
O2-	-2
Rb1+	1
loop_
_atom_site_label
_atom_site_type_symbol
_atom_site_symmetry_multiplicity
_atom_site_Wyckoff_symbol
_atom_site_fract_x
_atom_site_fract_y
_atom_site_fract_z
_atom_site_occupancy
_atom_site_attached_hydrogens
_atom_site_U_iso_or_equiv
Rb1 Rb1+ 8 f 0 0.19688(3) 0.21611(5) 1. 0 0 
Rb2 Rb1+ 8 d 0.22930(3) 0 0 1. 0 0 
Mn1 Mn3.5+ 8 f 0 -.05014(4) 0.16559(7) 1. 0 0 
N1 N3- 4 a 0 0 0 1. 0 0 
C1 C2+ 8 f 0 -.1109(3) 0.3660(5) 1. 0 0 
N2 N3- 8 f 0 -.1493(3) 0.4721(5) 1. 0 0 
C2 C2+ 16 g 0.0846(2) 0.0203(2) 0.2472(4) 1. 0 0 
N3 N3- 16 g 0.1352(2) 0.0616(2) 0.2841(3) 1. 0 0 
C3 C2+ 16 g -.0818(2) -.1294(2) 0.1016(4) 1. 0 0 
N4 N3- 16 g 0.3713(2) 0.3245(2) 0.0687(3) 1. 0 0 
Na1 Na1+ 8 c 0.25 0.25 0 1. 0 0 
O1 O2- 8 e 0.25 0.1876(2) 0.25 1. 0 0 
H1 H1+ 16 g 0.2874(26) 0.1517(28) 0.2363(48) 1. 0 0.030(12) 
O2 O2- 16 g 0.1832(2) 0.3604(2) 0.0974(3) 1. 0 0 
H2 H1+ 16 g 0.1699(33) 0.3541(35) 0.1894(61) 1. 0 0.060(18) 
H3 H1+ 16 g 0.1507(33) 0.3739(31) 0.0612(57) 1. 0 0.034(18) 

loop_
_atom_site_aniso_label
_atom_site_aniso_type_symbol
_atom_site_aniso_U_11
_atom_site_aniso_U_22
_atom_site_aniso_U_33
_atom_site_aniso_U_12
_atom_site_aniso_U_13
_atom_site_aniso_U_23
Rb1 Rb1+ 0.0181(3) 0.0100(3) 0.0136(3) 0 0 0.0017(2)
Rb2 Rb1+ 0.0129(3) 0.0138(3) 0.0170(3) 0 0 -.0004(2)
Mn1 Mn3.5+ 0.0048(4) 0.0059(4) 0.0116(4) 0 0 -.0013(3)
N1 N3- 0.001(3) 0.008(3) 0.016(3) 0 0 -.008(2)
C1 C2+ 0.002(3) 0.004(3) 0.018(3) 0 0 -.005(2)
N2 N3- 0.013(2) 0.012(2) 0.017(2) 0 0 0.001(2)
C2 C2+ 0.009(2) 0.009(2) 0.011(2) 0.003(2) 0.002(2) 0.0024(14)
N3 N3- 0.011(2) 0.013(2) 0.0149(15) -.0023(14) -.0006(12) -.0006(13)
C3 C2+ 0.011(2) 0.009(2) 0.008(2) 0.005(2) 0.0007(14) 0.0018(14)
N4 N3- 0.013(2) 0.011(2) 0.014(2) -.0015(14) -.0003(12) -.0021(13)
Na1 Na1+ 0.0087(9) 0.0074(11) 0.0172(10) -.0005(9) 0.0001(7) -.0020(8)
O1 O2- 0.012(2) 0.009(2) 0.018(2) 0 0.000(2) 0
O2 O2- 0.013(2) 0.016(2) 0.0189(15) 0.0025(12) 0.0009(13) -.0003(12)
#End of data_410749-ICSD


