data_34886-ICSD
#?2014 by Fachinformationszentrum Karlsruhe, and the U.S. Secretary of 
#Commerce on behalf of the United States.  All rights reserved.
_database_code_ICSD                34886
_audit_creation_date               1980/01/01
_audit_update_record               2007/08/01
_chemical_name_systematic          'Sodium Carbonate Hydrate'
_chemical_formula_structural       'Na2 (C O3) (H2 O)'
_chemical_formula_sum              'C1 H2 Na2 O4'
_chemical_name_mineral             Thermonatrite
_publ_section_title
;
Determination of hydrogen positions in some crystalline hydrates with 
use of nuclear magnetic resonance
;
loop_
_citation_id
_citation_journal_abbrev
_citation_year
_citation_journal_volume
_citation_page_first
_citation_page_last
_citation_journal_id_ASTM
primary 'Acta Crystallographica B (24,1968-38,1982)' 1968 24 1131 1133 ACBCAR
2
;
Zeitschrift fuer Kristallographie, Kristallgeometrie, Kristallphysik, 
Kristallchemie (-144,1977)
;
 1936 95 266 273 ZEKGAX
3 'Bulletin de la Societe Chimique de France (Vol=Year)'
 1962 1962 1035 1035 BSCFAS
_publ_author_name                  'El Saffar, Z.M.'
_cell_length_a                     6.472
_cell_length_b                     10.724
_cell_length_c                     5.259
_cell_angle_alpha                  90.
_cell_angle_beta                   90.
_cell_angle_gamma                  90.
_cell_volume                       365
_cell_formula_units_Z              4
_symmetry_space_group_name_H-M     'P 21 a b'
_symmetry_Int_Tables_number        29
loop_
_symmetry_equiv_pos_site_id
_symmetry_equiv_pos_as_xyz
  1	'x, y+.5, -z'
  2	'x+.5, -y+.5, z'
  3	'x+.5, -y, -z'
  4	'x, y, z'
loop_
_atom_type_symbol
_atom_type_oxidation_number
C4+	4
H1+	1
Na1+	1
O2-	-2
loop_
_atom_site_label
_atom_site_type_symbol
_atom_site_symmetry_multiplicity
_atom_site_Wyckoff_symbol
_atom_site_fract_x
_atom_site_fract_y
_atom_site_fract_z
_atom_site_occupancy
_atom_site_attached_hydrogens
Na1 Na1+ 4 a -.042 0.194 0.139 1. 0 
Na2 Na1+ 4 a 0.042 0.014 -.375 1. 0 
C1 C4+ 4 a 0.75 0.26 0.602 1. 0 
O1 O2- 4 a 0.75 0.147 0.542 1. 0 
O2 O2- 4 a 0.75 0.339 0.436 1. 0 
O3 O2- 4 a 0.75 0.287 -.171 1. 0 
O4 O2- 4 a 0.014 -.022 0.111 1. 0 
H1 H1+ 4 a 0.128 0.445 0.783 1. 0 
H2 H1+ 4 a -.104 0.422 0.855 1. 0 

#End of data_34886-ICSD


