data_109961-ICSD
#?2014 by Fachinformationszentrum Karlsruhe, and the U.S. Secretary of 
#Commerce on behalf of the United States.  All rights reserved.
_database_code_ICSD                109961
_audit_creation_date               2008/02/01
_chemical_name_systematic
;
Trisodium Trioxalatochromate(III) Pentahydrate
;
_chemical_formula_structural       'Na3 (Cr (C2 O4)3) (H2 O)5'
_chemical_formula_sum              'C6 H10 Cr1 Na3 O17'
_publ_section_title
;
Structure of sodium trisoxalato aluminate(III) pentahydrate and 
sodium trisoxalato chromate(III) pentahydrate
;
loop_
_citation_id
_citation_journal_abbrev
_citation_year
_citation_journal_volume
_citation_page_first
_citation_page_last
_citation_journal_id_ASTM
primary 'Documenta Chemica Yugoslavica. Vestnik Slovenskega Kemijskega Drustva'
 1982 29 211 225 VSKDAA
2 'Bulletin of the yugoslavian crystallographic centre, ser. A.'
 1976 11 41 44 BUYCC9
_publ_author_name                  'Bulc, N.;Golic, L.;Siftar, J.'
_cell_length_a                     17.325(1)
_cell_length_b                     12.559(1)
_cell_length_c                     15.197(2)
_cell_angle_alpha                  90
_cell_angle_beta                   100.39(1)
_cell_angle_gamma                  90
_cell_volume                       3252.42
_cell_formula_units_Z              8
_symmetry_space_group_name_H-M     'C 1 2/c 1'
_symmetry_Int_Tables_number        15
_refine_ls_R_factor_all            .044
loop_
_symmetry_equiv_pos_site_id
_symmetry_equiv_pos_as_xyz
  1	'x, -y, z+.5'
  2	'-x, -y, -z'
  3	'-x, y, -z+.5'
  4	'x, y, z'
  5	'x+.5, -y+.5, z+.5'
  6	'-x+.5, -y+.5, -z'
  7	'-x+.5, y+.5, -z+.5'
  8	'x+.5, y+.5, z'
loop_
_atom_type_symbol
_atom_type_oxidation_number
C3+	3
Cr3+	3
H1+	1
Na1+	1
O2-	-2
loop_
_atom_site_label
_atom_site_type_symbol
_atom_site_symmetry_multiplicity
_atom_site_Wyckoff_symbol
_atom_site_fract_x
_atom_site_fract_y
_atom_site_fract_z
_atom_site_occupancy
_atom_site_attached_hydrogens
Cr1 Cr3+ 8 f 0.30810 0.63330 0.26850 1. 0 
Na1 Na1+ 4 e 0.50000 -0.00910 0.25000 1. 0 
Na2 Na1+ 4 e 0.50000 0.27210 0.25000 1. 0 
Na3 Na1+ 8 f 0.45790 0.61310 0.50050 1. 0 
Na4 Na1+ 8 f 0.37870 0.87140 0.48350 1. 0 
O1 O2- 8 f 0.23340 0.59490 0.34730 1. 0 
O2 O2- 8 f 0.21110 0.67910 0.18820 1. 0 
O3 O2- 8 f 0.10490 0.60350 0.35110 1. 0 
O4 O2- 8 f 0.08060 0.66330 0.17370 1. 0 
O5 O2- 8 f 0.37420 0.69080 0.18690 1. 0 
O6 O2- 8 f 0.33050 0.77170 0.32770 1. 0 
O7 O2- 8 f 0.43470 0.84120 0.15990 1. 0 
O8 O2- 8 f 0.39580 0.92180 0.31670 1. 0 
O9 O2- 8 f 0.30080 0.49570 0.20620 1. 0 
O10 O2- 8 f 0.39800 0.56230 0.34570 1. 0 
O11 O2- 8 f 0.37150 0.34970 0.19540 1. 0 
O12 O2- 8 f 0.46940 0.41340 0.35110 1. 0 
O13 O2- 8 f 0.49600 0.20280 0.50370 1. 0 
O14 O2- 8 f 0.41590 0.43480 0.53530 1. 0 
O15 O2- 8 f 0.33620 0.69520 0.51590 1. 0 
O16 O2- 8 f 0.20780 0.49830 0.53110 1. 0 
O17 O2- 8 f 0.28020 0.36130 0.41700 1. 0 
C1 C3+ 8 f 0.16070 0.61410 0.31290 1. 0 
C2 C3+ 8 f 0.14750 0.65520 0.21590 1. 0 
C3 C3+ 8 f 0.39710 0.78730 0.20360 1. 0 
C4 C3+ 8 f 0.37310 0.83440 0.28920 1. 0 
C5 C3+ 8 f 0.35860 0.43290 0.23180 1. 0 
C6 C3+ 8 f 0.41500 0.47060 0.31720 1. 0 
H1 H1+ 8 f 0.46160 0.18870 0.44550 1. 0 
H2 H1+ 8 f 0.46510 0.17530 0.54760 1. 0 
H3 H1+ 8 f 0.41110 0.40240 0.59350 1. 0 
H4 H1+ 8 f 0.37020 0.40940 0.49160 1. 0 
H5 H1+ 8 f 0.33370 0.68110 0.57950 1. 0 
H6 H1+ 8 f 0.28060 0.67710 0.49290 1. 0 
H7 H1+ 8 f 0.23530 0.44860 0.49660 1. 0 
H8 H1+ 8 f 0.23610 0.50000 0.59370 1. 0 
H9 H1+ 8 f 0.26870 0.29990 0.38870 1. 0 
H10 H1+ 8 f 0.28880 0.41770 0.37630 1. 0 

#End of data_109961-ICSD


