data_173376-ICSD
#?2014 by Fachinformationszentrum Karlsruhe, and the U.S. Secretary of 
#Commerce on behalf of the United States.  All rights reserved.
_database_code_ICSD                173376
_audit_creation_date               2008/08/01
_audit_update_record               2011/02/01
_chemical_name_systematic
;
Sodium Manganese 2-hydroxyl(phosphono)carboxylate
;
_chemical_formula_structural       'Na Mn (O3 P C H (O H) C O2)'
_chemical_formula_sum              'C2 H2 Mn1 Na1 O6 P1'
_publ_section_title
;
Syntheses, crystal structures, thermal stabilities, and magnetic and 
luminescent properties of 3D heterometal phosphonates: Na M [O3 P C H 
(O H) C O2] (M = Mn, Fe, Co, Zn)
;
loop_
_citation_id
_citation_journal_abbrev
_citation_year
_citation_journal_volume
_citation_journal_issue
_citation_page_first
_citation_page_last
_citation_journal_id_ASTM
primary 'European Journal of Inorganic Chemistry  (online)'
 2007 2007 34 5439 5446 EJICFO
_publ_author_name
;
Lai Zhuzhi;Fu Ruibiao;Hu Shengmin;Wu Xin Tao
;
_cell_length_a                     10.4557(5)
_cell_length_b                     9.8265(4)
_cell_length_c                     10.93230(10)
_cell_angle_alpha                  90.00
_cell_angle_beta                   90.00
_cell_angle_gamma                  90.00
_cell_volume                       1123.22
_cell_formula_units_Z              8
_symmetry_space_group_name_H-M     'P b c a'
_symmetry_Int_Tables_number        61
_refine_ls_R_factor_all            .0455
loop_
_symmetry_equiv_pos_site_id
_symmetry_equiv_pos_as_xyz
  1	'x+.5, y, -z+.5'
  2	'x, -y+.5, z+.5'
  3	'-x+.5, y+.5, z'
  4	'-x, -y, -z'
  5	'-x+.5, -y, z+.5'
  6	'-x, y+.5, -z+.5'
  7	'x+.5, -y+.5, -z'
  8	'x, y, z'
loop_
_atom_type_symbol
_atom_type_oxidation_number
C2+	2
C4+	4
H1-	-1
H1+	1
Mn2+	2
Na1+	1
O2-	-2
P3+	3
loop_
_atom_site_label
_atom_site_type_symbol
_atom_site_symmetry_multiplicity
_atom_site_Wyckoff_symbol
_atom_site_fract_x
_atom_site_fract_y
_atom_site_fract_z
_atom_site_occupancy
_atom_site_attached_hydrogens
_atom_site_U_iso_or_equiv
Mn1 Mn2+ 8 c 0.67568(6) 0.08406(6) 0.39594(6) 1 0 0.0122(3) 
Na1 Na1+ 8 c 0.87458(18) -0.08535(16) 0.57728(18) 1 0 0.0199(5) 
P1 P3+ 8 c 0.59920(9) -0.22576(11) 0.53966(10) 1 0 0.0123(3) 
O1 O2- 8 c 0.6513(3) -0.3640(3) 0.5001(3) 1 0 0.0184(7) 
O2 O2- 8 c 0.4551(3) -0.2195(3) 0.5218(3) 1 0 0.0178(7) 
O3 O2- 8 c 0.6725(3) -0.1076(3) 0.4835(3) 1 0 0.0172(7) 
O4 O2- 8 c 0.7627(3) -0.2251(3) 0.7336(3) 1 0 0.0154(7) 
H1 H1+ 8 c 0.777(8) -0.329(8) 0.736(7) 1 0 0.06(2) 
O5 O2- 8 c 0.5222(3) 0.0248(3) 0.2659(3) 1 0 0.0179(7) 
O6 O2- 8 c 0.8148(3) -0.0159(3) 0.2696(3) 1 0 0.0182(7) 
C1 C4+ 8 c 0.6271(4) -0.2074(4) 0.7050(4) 1 0 0.0131(9) 
H2 H1- 8 c 0.575(4) -0.266(5) 0.748(5) 1 0 0.008(12) 
C2 C2+ 8 c 0.4068(4) 0.0611(5) 0.2619(4) 1 0 0.0139(9) 

loop_
_atom_site_aniso_label
_atom_site_aniso_type_symbol
_atom_site_aniso_U_11
_atom_site_aniso_U_22
_atom_site_aniso_U_33
_atom_site_aniso_U_12
_atom_site_aniso_U_13
_atom_site_aniso_U_23
Mn1 Mn2+ 0.0098(4) 0.0174(5) 0.0094(4) 0.0001(2) -0.0001(2) 0.0010(2)
Na1 Na1+ 0.0183(10) 0.0202(10) 0.0210(10) -0.0008(7) -0.0043(8) 0.0019(7)
P1 P3+ 0.0110(6) 0.0167(6) 0.0092(6) 0.0001(4) 0.0004(4) -0.0015(4)
O1 O2- 0.0216(16) 0.0177(16) 0.0157(17) 0.0021(13) 0.0027(14) -0.0020(12)
O2 O2- 0.0121(14) 0.0277(18) 0.0136(16) -0.0021(12) -0.0009(12) -0.0049(12)
O3 O2- 0.0167(16) 0.0207(16) 0.0142(17) -0.0047(12) -0.0031(12) 0.0052(13)
O4 O2- 0.0103(14) 0.0194(17) 0.0166(16) 0.0025(11) -0.0025(12) 0.0025(12)
O5 O2- 0.0135(15) 0.0228(17) 0.0174(16) 0.0041(12) -0.0005(12) -0.0017(12)
O6 O2- 0.0168(15) 0.0155(16) 0.0225(18) -0.0029(12) 0.0071(12) -0.0012(13)
C1 C4+ 0.0092(18) 0.020(2) 0.010(2) -0.0033(16) -0.0024(16) 0.0015(16)
C2 C2+ 0.0123(19) 0.016(2) 0.014(2) -0.0002(16) -0.0016(16) -0.0027(16)
#End of data_173376-ICSD


