data_110396-ICSD
#?2014 by Fachinformationszentrum Karlsruhe, and the U.S. Secretary of 
#Commerce on behalf of the United States.  All rights reserved.
_database_code_ICSD                110396
_audit_creation_date               2008/08/01
_chemical_name_systematic
;
Tris(tetramethylammonium) Potassium Hexaselenidodistannate
;
_chemical_formula_structural       '((C H3)4 N)3 K (Sn2 Se6)'
_chemical_formula_sum              'C12 H36 K1 N3 Se6 Sn2'
_publ_section_title
;
Ditin(IV) chalcogenide anions: 77Se, 119Sn, and 125Te solution NMR 
study of the (Sn2 Ch6)4- and (Sn2 Ch7)4- (Ch= Se, Te) anions, X-ray 
crystal structures and Raman spectra of K+ (N (C H3)4+)3 (Sn2 Se6)4-, 
(enH+)2 (2,2,2-crypt-K+)2 (Sn2 Se6)4-, and (K+)2 (
;
loop_
_citation_id
_citation_journal_abbrev
_citation_year
_citation_journal_volume
_citation_page_first
_citation_page_last
_citation_journal_id_ASTM
primary 'Inorganic Chemistry' 1996 35 2945 2962 INOCAJ
_publ_author_name
;
Campbell, J.;Devereux, L.A.;Gerken, M.;Mercier, H.P.A.;Pirani, 
A.M.;Schrobilgen, G.J.D.
;
_cell_length_a                     9.587(3)
_cell_length_b                     10.005(2)
_cell_length_c                     15.996(5)
_cell_angle_alpha                  95.15(2)
_cell_angle_beta                   92.81(2)
_cell_angle_gamma                  106.96(2)
_cell_volume                       1457.09
_cell_formula_units_Z              2
_symmetry_space_group_name_H-M     'P -1'
_symmetry_Int_Tables_number        2
_refine_ls_R_factor_all            .0494
loop_
_symmetry_equiv_pos_site_id
_symmetry_equiv_pos_as_xyz
  1	'-x, -y, -z'
  2	'x, y, z'
loop_
_atom_type_symbol
_atom_type_oxidation_number
C4+	4
H1-	-1
K1+	1
N3-	-3
Se2-	-2
Sn4+	4
loop_
_atom_site_label
_atom_site_type_symbol
_atom_site_symmetry_multiplicity
_atom_site_Wyckoff_symbol
_atom_site_fract_x
_atom_site_fract_y
_atom_site_fract_z
_atom_site_occupancy
_atom_site_attached_hydrogens
Sn1 Sn4+ 2 i 0.0966(1) 0.5970(1) 0.0943(1) 1. 0 
Se1 Se2- 2 i -0.1341(1) 0.3799(1) 0.0631(1) 1. 0 
Se2 Se2- 2 i 0.2988(1) 0.5406(1) 0.1698(1) 1. 0 
Se3 Se2- 2 i 0.0451(2) 0.8059(1) 0.1654(1) 1. 0 
Sn2 Sn4+ 2 i 0.3963(1) 0.8689(1) 0.5615(1) 1. 0 
Se4 Se2- 2 i 0.6556(2) 0.9214(1) 0.5056(1) 1. 0 
Se5 Se2- 2 i 0.2241(2) 0.6553(2) 0.4880(1) 1. 0 
Se6 Se2- 2 i 0.5774(2) 1.0913(2) 0.2841(1) 1. 0 
K1 K1+ 2 i 0.3039(3) 0.8102(3) 0.3134(2) 1. 0 
N1 N3- 2 i 0.3191(14) 0.1837(13) 0.0000(8) 1. 0 
C1 C4+ 2 i 0.1779(16) 0.1615(17) 0.0377(10) 1. 0 
C2 C4+ 2 i 0.3483(19) 0.3222(16) -0.0352(10) 1. 0 
C3 C4+ 2 i 0.4310(21) 0.1961(27) 0.0684(14) 1. 0 
C4 C4+ 2 i 0.3149(26) 0.0715(21) -0.0661(13) 1. 0 
N2 N3- 2 i 0.3022(12) 0.3932(11) 0.6792(7) 1. 0 
C5 C4+ 2 i 0.3182(15) 0.2667(13) 0.7176(9) 1. 0 
C6 C4+ 2 i 0.4292(15) 0.4475(16) 0.6274(10) 1. 0 
C7 C4+ 2 i 0.2978(20) 0.5017(15) 0.7454(12) 1. 0 
C8 C4+ 2 i 0.1585(16) 0.3461(17) 0.6231(10) 1. 0 
N3 N3- 2 i 0.0727(12) 0.2039(12) 0.3131(7) 1. 0 
C9 C4+ 2 i -0.0119(19) 0.2035(23) 0.2353(13) 1. 0 
C10 C4+ 2 i 0.0944(34) 0.3340(17) 0.3664(14) 1. 0 
C11 C4+ 2 i 0.2157(16) 0.1909(18) 0.2847(11) 1. 0 
C12 C4+ 2 i -0.0008(16) 0.0817(16) 0.3577(10) 1. 0 
H1 H1- 2 i 0.1852(16) 0.2372(17) 0.0807(10) 1. 0 
H2 H1- 2 i 0.1537(16) 0.0741(17) 0.0621(10) 1. 0 
H3 H1- 2 i 0.1029(16) 0.1587(17) -0.005(1) 1. 0 
H4 H1- 2 i 0.3508(19) 0.3944(16) 0.0092(10) 1. 0 
H5 H1- 2 i 0.2721(19) 0.3173(16) -0.0776(10) 1. 0 
H6 H1- 2 i 0.4407(19) 0.3437(16) -0.0596(10) 1. 0 
H7 H1- 2 i 0.4302(21) 0.2709(27) 0.1103(14) 1. 0 
H8 H1- 2 i 0.5254(21) 0.2163(27) 0.0464(14) 1. 0 
H9 H1- 2 i 0.4106(21) 0.1094(27) 0.0934(14) 1. 0 
H10 H1- 2 i 0.2405(26) 0.0670(21) -0.1096(13) 1. 0 
H11 H1- 2 i 0.2934(26) -0.0166(21) -0.0426(13) 1. 0 
H12 H1- 2 i 0.4082(26) 0.0905(21) -0.0895(13) 1. 0 
H13 H1- 2 i 0.3210(15) 0.1956(13) 0.6738(9) 1. 0 
H14 H1- 2 i 0.2366(15) 0.2309(13) 0.7501(9) 1. 0 
H15 H1- 2 i 0.4072(15) 0.2927(13) 0.7534(9) 1. 0 
H16 H1- 2 i 0.4311(15) 0.3754(16) 0.584(1) 1. 0 
H17 H1- 2 i 0.5187(15) 0.4738(16) 0.6629(10) 1. 0 
H18 H1- 2 i 0.4190(15) 0.5280(16) 0.6022(10) 1. 0 
H19 H1- 2 i 0.2875(20) 0.5824(15) 0.7205(12) 1. 0 
H20 H1- 2 i 0.3868(20) 0.5279(15) 0.7813(12) 1. 0 
H21 H1- 2 i 0.2161(20) 0.4661(15) 0.7780(12) 1. 0 
H22 H1- 2 i 0.1627(16) 0.2748(17) 0.5798(10) 1. 0 
H23 H1- 2 i 0.1443(16) 0.4251(17) 0.5978(10) 1. 0 
H24 H1- 2 i 0.0786(16) 0.3089(17) 0.6566(10) 1. 0 
H25 H1- 2 i -0.0252(19) 0.1166(23) 0.2006(13) 1. 0 
H26 H1- 2 i 0.0392(19) 0.2805(23) 0.2060(13) 1. 0 
H27 H1- 2 i -0.1056(19) 0.2131(23) 0.2479(13) 1. 0 
H28 H1- 2 i 0.1504(34) 0.3327(17) 0.4175(14) 1. 0 
H29 H1- 2 i 0.0011(34) 0.3443(17) 0.3794(14) 1. 0 
H30 H1- 2 i 0.1459(34) 0.4015(17) 0.3375(14) 1. 0 
H31 H1- 2 i 0.1988(16) 0.1039(18) 0.2495(11) 1. 0 
H32 H1- 2 i 0.2800(16) 0.1927(18) 0.3329(11) 1. 0 
H33 H1- 2 i 0.2595(16) 0.2680(18) 0.2534(11) 1. 0 
H34 H1- 2 i -0.0140(16) -0.0036(16) 0.3214(10) 1. 0 
H35 H1- 2 i -0.0944(16) 0.0886(16) 0.3727(10) 1. 0 
H36 H1- 2 i 0.0585(16) 0.0811(16) 0.4077(10) 1. 0 

#End of data_110396-ICSD


