data_409559-ICSD
#?2014 by Fachinformationszentrum Karlsruhe, and the U.S. Secretary of 
#Commerce on behalf of the United States.  All rights reserved.
_database_code_ICSD                409559
_audit_creation_date               2002/10/01
_chemical_name_systematic
;
Pentapotassium Bis(carbodiimide) Hydride
;
_chemical_formula_structural       'K5 (C N2)2 H'
_chemical_formula_sum              'C2 H1 K5 N4'
_publ_section_title
;
Crystal structure of pentapotassium dicarbodiimide monohydride, K5 (C 
N2)2 H
;
loop_
_citation_id
_citation_journal_abbrev
_citation_year
_citation_journal_volume
_citation_page_first
_citation_page_last
_citation_journal_id_ASTM
primary 'Zeitschrift fuer Kristallographie - New Crystal Structures'
 2001 216 335 336 ZKNSFT
_publ_author_name
;
Niewa, R.;Hoehn, P.;Kniep, R.;Weiske, A.;Jacobs, H.
;
_cell_length_a                     9.0953(3)
_cell_length_b                     9.0953(3)
_cell_length_c                     11.0291(6)
_cell_angle_alpha                  90.
_cell_angle_beta                   90.
_cell_angle_gamma                  90.
_cell_volume                       912.38
_cell_formula_units_Z              4
_symmetry_space_group_name_H-M     'P 4/n c c Z'
_symmetry_Int_Tables_number        130
_refine_ls_R_factor_all            .0693
loop_
_symmetry_equiv_pos_site_id
_symmetry_equiv_pos_as_xyz
  1	'y+.5, x+.5, -z+.5'
  2	'-y, x+.5, -z'
  3	'y+.5, -x, -z'
  4	'-y, -x, -z+.5'
  5	'x+.5, y+.5, -z'
  6	'-x, y+.5, -z+.5'
  7	'x+.5, -y, -z+.5'
  8	'-x, -y, -z'
  9	'-y+.5, -x+.5, z+.5'
 10	'y, -x+.5, z'
 11	'-y+.5, x, z'
 12	'y, x, z+.5'
 13	'-x+.5, -y+.5, z'
 14	'x, -y+.5, z+.5'
 15	'-x+.5, y, z+.5'
 16	'x, y, z'
loop_
_atom_type_symbol
_atom_type_oxidation_number
C4+	4
H1-	-1
K1+	1
N3-	-3
loop_
_atom_site_label
_atom_site_type_symbol
_atom_site_symmetry_multiplicity
_atom_site_Wyckoff_symbol
_atom_site_fract_x
_atom_site_fract_y
_atom_site_fract_z
_atom_site_occupancy
_atom_site_attached_hydrogens
_atom_site_U_iso_or_equiv
K1 K1+ 4 c 0.25 0.25 0.1527(2) 1. 0 0 
K2 K1+ 16 g -.14601(12) 0.04481(12) 0.10178(10) 1. 0 0 
N1 N3- 16 g 0.1504(5) -.0559(5) 0.1535(4) 1. 0 0 
C1 C4+ 8 f 0.1031(5) -.1031(5) 0.25 1. 0 0 
H1 H1- 4 c -.25 -.25 0.100(8) 1. 0 0.17(4) 

loop_
_atom_site_aniso_label
_atom_site_aniso_type_symbol
_atom_site_aniso_U_11
_atom_site_aniso_U_22
_atom_site_aniso_U_33
_atom_site_aniso_U_12
_atom_site_aniso_U_13
_atom_site_aniso_U_23
K1 K1+ 0.0226(7) 0.0226(7) 0.0217(10) 0 0 0
K2 K1+ 0.0202(6) 0.0278(6) 0.0249(6) 0.0025(4) 0.0016(4) -.0018(5)
N1 N3- 0.027(2) 0.022(2) 0.026(2) -.0014(18) -.0019(19) 0.0028(18)
C1 C4+ 0.0131(17) 0.0131(17) 0.019(3) 0.002(2) -.0045(18) -.0045(18)
#End of data_409559-ICSD


