data_173378-ICSD
#?2014 by Fachinformationszentrum Karlsruhe, and the U.S. Secretary of 
#Commerce on behalf of the United States.  All rights reserved.
_database_code_ICSD                173378
_audit_creation_date               2008/08/01
_chemical_name_systematic
;
Sodium Cobalt 2-hydroxyl(phosphono)carboxylate
;
_chemical_formula_structural       'Na Co (O3 P C H (O H) C O2)'
_chemical_formula_sum              'C2 H2 Co1 Na1 O6 P1'
_publ_section_title
;
Syntheses, crystal structures, thermal stabilities, and magnetic and 
luminescent properties of 3D heterometal phosphonates: Na M [O3 P C H 
(O H) C O2] (M = Mn, Fe, Co, Zn)
;
loop_
_citation_id
_citation_journal_abbrev
_citation_year
_citation_journal_volume
_citation_journal_issue
_citation_page_first
_citation_page_last
_citation_journal_id_ASTM
primary 'European Journal of Inorganic Chemistry  (online)'
 2007 2007 34 5439 5446 EJICFO
_publ_author_name
;
Lai Zhuzhi;Fu Ruibiao;Hu Shengmin;Wu Xin Tao
;
_cell_length_a                     10.1998(9)
_cell_length_b                     9.6890(9)
_cell_length_c                     10.7943(10)
_cell_angle_alpha                  90.00
_cell_angle_beta                   90.00
_cell_angle_gamma                  90.00
_cell_volume                       1066.76
_cell_formula_units_Z              8
_symmetry_space_group_name_H-M     'P b c a'
_symmetry_Int_Tables_number        61
_refine_ls_R_factor_all            .0341
loop_
_symmetry_equiv_pos_site_id
_symmetry_equiv_pos_as_xyz
  1	'x+.5, y, -z+.5'
  2	'x, -y+.5, z+.5'
  3	'-x+.5, y+.5, z'
  4	'-x, -y, -z'
  5	'-x+.5, -y, z+.5'
  6	'-x, y+.5, -z+.5'
  7	'x+.5, -y+.5, -z'
  8	'x, y, z'
loop_
_atom_type_symbol
_atom_type_oxidation_number
C2+	2
C4+	4
Co2+	2
H1-	-1
H1+	1
Na1+	1
O2-	-2
P3+	3
loop_
_atom_site_label
_atom_site_type_symbol
_atom_site_symmetry_multiplicity
_atom_site_Wyckoff_symbol
_atom_site_fract_x
_atom_site_fract_y
_atom_site_fract_z
_atom_site_occupancy
_atom_site_attached_hydrogens
_atom_site_U_iso_or_equiv
Co1 Co2+ 8 c 0.18042(4) 0.58398(4) -0.10833(4) 1 0 0.00996(12) 
Na1 Na1+ 8 c 0.37568(12) 0.41632(13) 0.07217(13) 1 0 0.0185(3) 
P1 P3+ 8 c 0.09469(7) 0.28105(8) 0.03971(7) 1 0 0.00930(17) 
O1 O2- 8 c 0.1477(2) 0.1412(2) -0.0027(2) 1 0 0.0135(4) 
O2 O2- 8 c -0.0540(2) 0.2869(2) 0.0238(2) 1 0 0.0136(5) 
O3 O2- 8 c 0.1689(2) 0.4023(2) -0.0149(2) 1 0 0.0143(5) 
O4 O2- 8 c 0.2619(2) 0.2802(2) 0.2366(2) 1 0 0.0123(4) 
H1 H1+ 8 c 0.280(4) 0.195(5) 0.247(4) 1 0 0.041(13) 
O5 O2- 8 c 0.0281(2) 0.5164(2) -0.2322(2) 1 0 0.0145(5) 
O6 O2- 8 c 0.3188(2) 0.4789(2) -0.2197(2) 1 0 0.0151(5) 
C1 C4+ 8 c 0.1248(3) 0.2978(3) 0.2073(3) 1 0 0.0096(6) 
H2 H1- 8 c 0.073(3) 0.237(3) 0.251(3) 1 0 0.007(8) 
C2 C2+ 8 c -0.0888(3) 0.5548(3) -0.2425(3) 1 0 0.0114(6) 

loop_
_atom_site_aniso_label
_atom_site_aniso_type_symbol
_atom_site_aniso_U_11
_atom_site_aniso_U_22
_atom_site_aniso_U_33
_atom_site_aniso_U_12
_atom_site_aniso_U_13
_atom_site_aniso_U_23
Co1 Co2+ 0.0084(2) 0.0102(2) 0.0112(2) 0.00042(15) 0.00068(15) 0.00037(16)
Na1 Na1+ 0.0163(6) 0.0151(6) 0.0240(7) -0.0004(5) -0.0034(5) 0.0008(5)
P1 P3+ 0.0081(3) 0.0092(4) 0.0105(4) -0.0004(3) 0.0002(3) -0.0007(3)
O1 O2- 0.0146(10) 0.0108(10) 0.0151(11) 0.0009(8) 0.0039(9) -0.0015(9)
O2 O2- 0.0094(10) 0.0151(11) 0.0163(12) 0.0004(8) -0.0012(9) -0.0043(9)
O3 O2- 0.0140(11) 0.0126(10) 0.0165(11) -0.0022(8) 0.0000(9) 0.0045(9)
O4 O2- 0.0107(10) 0.0098(10) 0.0163(11) 0.0026(8) -0.0025(9) 0.0003(9)
O5 O2- 0.0104(10) 0.0151(11) 0.0181(12) 0.0016(8) -0.0014(9) -0.0033(9)
O6 O2- 0.0151(11) 0.0089(10) 0.0212(12) -0.0013(8) 0.0071(9) -0.0002(9)
C1 C4+ 0.0084(13) 0.0087(13) 0.0118(14) 0.0005(11) 0.0002(11) 0.0010(11)
C2 C2+ 0.0126(14) 0.0125(14) 0.0091(14) -0.0014(11) -0.0005(11) 0.0022(12)
#End of data_173378-ICSD


