data_249650-ICSD
#?2014 by Fachinformationszentrum Karlsruhe, and the U.S. Secretary of 
#Commerce on behalf of the United States.  All rights reserved.
_database_code_ICSD                249650
_audit_creation_date               2009/02/01
_chemical_name_systematic
;
Dipotassium Bis(oxalato)-bis(chloro)-mue-oxo-bis(ferrate(III)) 
Tetrahydrate
;
_chemical_formula_structural       'K2 (Fe2 O (C2 O4)2 Cl2) (H2 O)4'
_chemical_formula_sum              'C4 H8 Cl2 Fe2 K2 O13'
_publ_section_title
;
New extended magnetic systems based on oxalate and iron(III) ions
;
loop_
_citation_id
_citation_journal_abbrev
_citation_year
_citation_journal_volume
_citation_journal_issue
_citation_page_first
_citation_page_last
_citation_journal_id_ASTM
primary 'Inorganic Chemistry' 2008 47 9 3772 3786 INOCAJ
_publ_author_name
;
Armentano, D.;Mastropietro, T.F.;de Munno, G.;Rossi, P.;Lloret, 
F.;Julve, M.
;
_cell_length_a                     15.1807(16)
_cell_length_b                     23.807(2)
_cell_length_c                     8.6398(7)
_cell_angle_alpha                  90.00
_cell_angle_beta                   90.00
_cell_angle_gamma                  90.00
_cell_volume                       3122.48
_cell_formula_units_Z              8
_symmetry_space_group_name_H-M     'F d d 2'
_symmetry_Int_Tables_number        43
_refine_ls_R_factor_all            .0271
loop_
_symmetry_equiv_pos_site_id
_symmetry_equiv_pos_as_xyz
  1	'x+.25, -y+.25, z+.25'
  2	'-x+.25, y+.25, z+.25'
  3	'-x, -y, z'
  4	'x, y, z'
  5	'x+.25, -y+.75, z+.75'
  6	'x+.75, -y+.25, z+.75'
  7	'x+.75, -y+.75, z+.25'
  8	'-x+.25, y+.75, z+.75'
  9	'-x+.75, y+.25, z+.75'
 10	'-x+.75, y+.75, z+.25'
 11	'-x, -y+.5, z+.5'
 12	'-x+.5, -y, z+.5'
 13	'-x+.5, -y+.5, z'
 14	'x, y+.5, z+.5'
 15	'x+.5, y, z+.5'
 16	'x+.5, y+.5, z'
loop_
_atom_type_symbol
_atom_type_oxidation_number
C3+	3
Cl1-	-1
Fe3+	3
H1+	1
K1+	1
O2-	-2
loop_
_atom_site_label
_atom_site_type_symbol
_atom_site_symmetry_multiplicity
_atom_site_Wyckoff_symbol
_atom_site_fract_x
_atom_site_fract_y
_atom_site_fract_z
_atom_site_occupancy
_atom_site_attached_hydrogens
_atom_site_U_iso_or_equiv
Fe1 Fe3+ 16 b 0.569672(16) 0.054222(10) 0.26315(3) 1 0 0.01708(7) 
Cl1 Cl1- 16 b 0.67649(3) -0.00608(2) 0.15938(7) 1 0 0.02976(12) 
O1 O2- 8 a 0.5000 0.0000 0.3424(3) 1 0 0.0229(4) 
O2 O2- 16 b 0.65888(10) 0.12325(6) 0.19679(18) 1 0 0.0226(3) 
O3 O2- 16 b 0.63205(9) 0.07342(6) 0.46823(17) 1 0 0.0220(3) 
C1 C3+ 16 b 0.68825(11) 0.11216(8) 0.4639(2) 1 0 0.0173(3) 
C2 C3+ 16 b 0.70425(12) 0.14015(7) 0.3063(2) 1 0 0.0177(3) 
O4 O2- 16 b 0.73129(9) 0.13034(6) 0.57619(17) 1 0 0.0208(3) 
O5 O2- 16 b 0.76237(9) 0.17807(6) 0.30352(16) 1 0 0.0218(3) 
K1 K1+ 16 b 0.72330(5) 0.16841(3) -0.09280(9) 1 0 0.05652(19) 
O6 O2- 16 b 0.81611(15) 0.07408(10) -0.0098(3) 1 0 0.0522(6) 
O7 O2- 16 b 0.64358(17) 0.26332(12) 0.0318(3) 1 0 0.0607(7) 
H1 H1+ 16 b 0.789(2) 0.0518(14) 0.069(4) 1 0 0.060 
H2 H1+ 16 b 0.8749(11) 0.0626(14) -0.030(5) 1 0 0.060 
H3 H1+ 16 b 0.667(2) 0.2795(16) -0.062(3) 1 0 0.060 
H4 H1+ 16 b 0.5827(8) 0.2651(18) 0.006(4) 1 0 0.060 

loop_
_atom_site_aniso_label
_atom_site_aniso_type_symbol
_atom_site_aniso_U_11
_atom_site_aniso_U_22
_atom_site_aniso_U_33
_atom_site_aniso_U_12
_atom_site_aniso_U_13
_atom_site_aniso_U_23
Fe1 Fe3+ 0.01538(11) 0.01572(11) 0.02015(11) -0.00047(9) -0.00104(9) 
0.00018(9)
Cl1 Cl1- 0.0230(2) 0.0251(2) 0.0412(3) 0.00471(17) 0.00504(19) -0.0034(2)
O1 O2- 0.0248(9) 0.0185(8) 0.0254(10) -0.0035(7) 0.000 0.000
O2 O2- 0.0230(6) 0.0258(7) 0.0191(6) -0.0034(5) -0.0024(5) 0.0008(5)
O3 O2- 0.0223(6) 0.0222(6) 0.0214(7) -0.0066(5) -0.0013(5) 0.0032(5)
C1 C3+ 0.0151(7) 0.0170(7) 0.0199(7) 0.0008(6) -0.0001(6) 0.0012(6)
C2 C3+ 0.0175(7) 0.0174(8) 0.0183(8) 0.0007(6) 0.0017(6) 0.0024(6)
O4 O2- 0.0209(6) 0.0204(6) 0.0210(6) -0.0038(5) -0.0014(5) -0.0004(5)
O5 O2- 0.0207(6) 0.0237(7) 0.0210(7) -0.0057(5) -0.0011(5) 0.0037(5)
K1 K1+ 0.0533(4) 0.0642(4) 0.0520(4) 0.0127(3) 0.0182(3) 0.0087(3)
O6 O2- 0.0560(13) 0.0458(11) 0.0548(16) -0.0058(9) 0.0229(11) -0.0029(10)
O7 O2- 0.0597(14) 0.0861(19) 0.0361(12) 0.0154(13) -0.0072(11) -0.0016(12)
#End of data_249650-ICSD


