data_172524-ICSD
#?2014 by Fachinformationszentrum Karlsruhe, and the U.S. Secretary of 
#Commerce on behalf of the United States.  All rights reserved.
_database_code_ICSD                172524
_audit_creation_date               2007/04/01
_chemical_name_systematic
;
Potassium Trans-diaquabis(oxalato(2-)-kappa2o,o')chromate(III)
;
_chemical_formula_structural       'C4 H4 Cr K O10'
_chemical_formula_sum              'C4 H4 Cr1 K1 O10'
_publ_section_title
;
Potassium trans-diaquabis[oxalato(2-)-kappa2O,O']chromate(III)
;
loop_
_citation_id
_citation_journal_abbrev
_citation_year
_citation_journal_volume
_citation_journal_issue
_citation_page_first
_citation_page_last
_citation_journal_id_ASTM
primary 'Acta Crystallographica, Section E. Structure Reports Online'
 2006 62 6 m1400 m1402 ACSEBH
_publ_author_name
;
Belombe, M.;Nenwa, J.;Fokwa, B.P.T.;Dronskowski, R.
;
_cell_length_a                     6.6012(10)
_cell_length_b                     7.2585(11)
_cell_length_c                     9.8539(16)
_cell_angle_alpha                  90.00
_cell_angle_beta                   92.228(3)
_cell_angle_gamma                  90.00
_cell_volume                       471.79
_cell_formula_units_Z              2
_symmetry_space_group_name_H-M     'C 1 2/m 1'
_symmetry_Int_Tables_number        12
_refine_ls_R_factor_all            .044
loop_
_symmetry_equiv_pos_site_id
_symmetry_equiv_pos_as_xyz
  1	'-x, y, -z'
  2	'-x, -y, -z'
  3	'x, -y, z'
  4	'x, y, z'
  5	'-x+.5, y+.5, -z'
  6	'-x+.5, -y+.5, -z'
  7	'x+.5, -y+.5, z'
  8	'x+.5, y+.5, z'
loop_
_atom_type_symbol
_atom_type_oxidation_number
C3+	3
Cr3+	3
H1+	1
K1+	1
O2-	-2
loop_
_atom_site_label
_atom_site_type_symbol
_atom_site_symmetry_multiplicity
_atom_site_Wyckoff_symbol
_atom_site_fract_x
_atom_site_fract_y
_atom_site_fract_z
_atom_site_occupancy
_atom_site_attached_hydrogens
_atom_site_U_iso_or_equiv
Cr1 Cr3+ 2 d 0.0000 0.5000 0.5000 1 0 0.0133(3) 
K1 K1+ 2 a 0.0000 0.0000 0.0000 1 0 0.0443(5) 
O1 O2- 8 j 0.0638(3) 0.3215(3) 0.3590(2) 1 0 0.0195(5) 
O2 O2- 8 j 0.1862(4) 0.3070(4) 0.1521(2) 1 0 0.0341(6) 
C1 C3+ 8 j 0.1285(4) 0.3925(4) 0.2473(3) 1 0 0.0203(6) 
O3 O2- 4 i -0.2885(5) 0.5000 0.4385(3) 1 0 0.0235(7) 
H1 H1+ 8 j -0.334(6) 0.585(6) 0.400(4) 1 0 0.026(10) 

loop_
_atom_site_aniso_label
_atom_site_aniso_type_symbol
_atom_site_aniso_U_11
_atom_site_aniso_U_22
_atom_site_aniso_U_33
_atom_site_aniso_U_12
_atom_site_aniso_U_13
_atom_site_aniso_U_23
Cr1 Cr3+ 0.0153(5) 0.0094(4) 0.0156(5) 0.000 0.0045(3) 0.000
K1 K1+ 0.0533(11) 0.0412(10) 0.0391(9) 0.000 0.0120(8) 0.000
O1 O2- 0.0261(10) 0.0134(9) 0.0194(9) 0.0009(7) 0.0057(8) -0.0014(7)
O2 O2- 0.0473(14) 0.0315(13) 0.0245(11) 0.0020(11) 0.0132(10) -0.0082(9)
C1 C3+ 0.0153(5) 0.0094(4) 0.0156(5) 0.000 0.0045(3) 0.000
O3 O2- 0.0189(14) 0.0137(14) 0.0377(17) 0.000 -0.0022(12) 0.000
#End of data_172524-ICSD


