data_109952-ICSD
#?2014 by Fachinformationszentrum Karlsruhe, and the U.S. Secretary of 
#Commerce on behalf of the United States.  All rights reserved.
_database_code_ICSD                109952
_audit_creation_date               2008/02/01
_audit_update_record               2014/08/01
_chemical_name_systematic          'Pentapotassium Octaformatoyttriate'
_chemical_formula_structural       'K5 (Y (H C O O)8)'
_chemical_formula_sum              'C8 H8 K5 O16 Y1'
_publ_section_title
;
Stereochemistry of double formates. Crystal structures of potassium 
tetraformatoaquoyttrate, K (Y (C H O2)4) H2 O and K5 (Y (C H O2)8) 
etc.
;
loop_
_citation_id
_citation_journal_abbrev
_citation_year
_citation_journal_volume
_citation_page_first
_citation_page_last
_citation_journal_id_ASTM
primary 'Koordinatsionnaya Khimiya (= Coordination Chemistry (USSR))'
 1983 9 986 992 KOKHDC
_publ_author_name
;
Antsyshkina, A.S.;Porai Koshits, M.A.;Ostrikova, V.N.;Petrova, E.V.
;
_cell_length_a                     11.829(1)
_cell_length_b                     11.868(1)
_cell_length_c                     14.890(1)
_cell_angle_alpha                  90
_cell_angle_beta                   109.02(2)
_cell_angle_gamma                  90
_cell_volume                       1976.23
_cell_formula_units_Z              4
_symmetry_space_group_name_H-M     'C 1 2/c 1'
_symmetry_Int_Tables_number        15
loop_
_symmetry_equiv_pos_site_id
_symmetry_equiv_pos_as_xyz
  1	'x, -y, z+.5'
  2	'-x, -y, -z'
  3	'-x, y, -z+.5'
  4	'x, y, z'
  5	'x+.5, -y+.5, z+.5'
  6	'-x+.5, -y+.5, -z'
  7	'-x+.5, y+.5, -z+.5'
  8	'x+.5, y+.5, z'
loop_
_atom_type_symbol
_atom_type_oxidation_number
C2+	2
H1+	1
K1+	1
O2-	-2
Y3+	3
loop_
_atom_site_label
_atom_site_type_symbol
_atom_site_symmetry_multiplicity
_atom_site_Wyckoff_symbol
_atom_site_fract_x
_atom_site_fract_y
_atom_site_fract_z
_atom_site_occupancy
_atom_site_attached_hydrogens
Y1 Y3+ 4 e 0 0.19701 0.25 1. 0 
K1 K1+ 4 a 0.50000 0.5 0.5 1. 0 
K2 K1+ 8 f 0.59900 0.19920 0.48790 1. 0 
K3 K1+ 8 f 0.80740 0.59570 0.50070 1. 0 
O1 O2- 8 f 0.19120 0.25390 0.34970 1. 0 
O2 O2- 8 f 0.37980 0.30780 0.42170 1. 0 
O3 O2- 8 f 0.02030 0.34970 0.15380 1. 0 
O4 O2- 8 f 0.17720 -0.12880 0.38820 1. 0 
O5 O2- 8 f 0.09690 0.04210 0.34670 1. 0 
O6 O2- 8 f 0.11440 0.14000 0.15500 1. 0 
O7 O2- 8 f 0.24280 0.07780 0.09330 1. 0 
O8 O2- 8 f 0.06310 0.51990 0.10830 1. 0 
C1 C2+ 8 f 0.29200 0.28760 0.34920 1. 0 
C2 C2+ 8 f 0.06530 0.44790 0.16830 1. 0 
C3 C2+ 8 f 0.12980 -0.05540 0.33030 1. 0 
C4 C2+ 8 f 0.21880 0.11080 0.16350 1. 0 
H1 H1+ 8 f 0.30330 0.29970 0.28280 1. 0 
H2 H1+ 8 f 0.10830 0.47010 0.23940 1. 0 
H3 H1+ 8 f 0.11460 -0.07510 0.25860 1. 0 
H4 H1+ 8 f 0.20170 0.19010 0.13060 1. 0 

#End of data_109952-ICSD


