data_151294-ICSD
#?2014 by Fachinformationszentrum Karlsruhe, and the U.S. Secretary of 
#Commerce on behalf of the United States.  All rights reserved.
_database_code_ICSD                151294
_audit_creation_date               2006/10/01
_chemical_name_systematic          'Potassium Formate'
_chemical_formula_structural       'K (H C O O)'
_chemical_formula_sum              'C1 H1 K1 O2'
_publ_section_title
;
Coordination chemistry in anhydrous monovalent metallic formates. I. 
The crystal structure of anhydrous potassium formate K H C O O. C2h-
octahedral eight-coordination of the potassium atom
;
loop_
_citation_id
_citation_journal_abbrev
_citation_year
_citation_journal_volume
_citation_page_first
_citation_page_last
_citation_journal_id_ASTM
primary 'Inorganica Chimica Acta' 1980 43 237 241 ICHAA3
_publ_author_name                  'Mentzen, B.F.;Oddon, Y.'
_cell_length_a                     5.890(1)
_cell_length_b                     6.793(1)
_cell_length_c                     7.014(1)
_cell_angle_alpha                  90.
_cell_angle_beta                   90.
_cell_angle_gamma                  90.
_cell_volume                       280.64
_cell_formula_units_Z              4
_symmetry_space_group_name_H-M     'C m c m'
_symmetry_Int_Tables_number        63
_refine_ls_R_factor_all            .0522
loop_
_symmetry_equiv_pos_site_id
_symmetry_equiv_pos_as_xyz
  1	'-x, y, -z+.5'
  2	'-x, -y, z+.5'
  3	'-x, y, z'
  4	'-x, -y, -z'
  5	'x, -y, z+.5'
  6	'x, y, -z+.5'
  7	'x, -y, -z'
  8	'x, y, z'
  9	'-x+.5, y+.5, -z+.5'
 10	'-x+.5, -y+.5, z+.5'
 11	'-x+.5, y+.5, z'
 12	'-x+.5, -y+.5, -z'
 13	'x+.5, -y+.5, z+.5'
 14	'x+.5, y+.5, -z+.5'
 15	'x+.5, -y+.5, -z'
 16	'x+.5, y+.5, z'
loop_
_atom_type_symbol
_atom_type_oxidation_number
C4+	4
H1-	-1
K1+	1
O2-	-2
loop_
_atom_site_label
_atom_site_type_symbol
_atom_site_symmetry_multiplicity
_atom_site_Wyckoff_symbol
_atom_site_fract_x
_atom_site_fract_y
_atom_site_fract_z
_atom_site_occupancy
_atom_site_attached_hydrogens
_atom_site_B_iso_or_equiv
K1 K1+ 4 a 0 0 0 1. 0 2.1 
O1 O2- 8 g 0.3114(2) 0.1810(2) 0.250 1. 0 2.4 
C1 C4+ 4 c 0.5 0.0994(3) 0.250 1. 0 2.3 
H1 H1- 4 c 0.5 -0.041(4) 0.250 1. 0 3.8 

#End of data_151294-ICSD


