data_35255-ICSD
#?2014 by Fachinformationszentrum Karlsruhe, and the U.S. Secretary of 
#Commerce on behalf of the United States.  All rights reserved.
_database_code_ICSD                35255
_audit_creation_date               1982/12/31
_chemical_name_systematic
;
Bis(urea)-bis(dihydrogenphosphato)-magnesium Bis(urea)
;
_chemical_formula_structural
;
Mg (O C (N H2)2)2 (H2 P O4)2 (C O (N H2)2)2
;
_chemical_formula_sum              'C4 H20 Mg1 N8 O12 P2'
_publ_section_title
;
Crystal Structure of Bis(urea)bis(dihydrogen phosphato)calcium- 
Bis(urea) and its Isomorphous Magnesium Analogue, 
M(OC(NH2)2)2(H2PO4)2 * 2CO(NH2)2 (M=Ca,Mg)
;
loop_
_citation_id
_citation_journal_abbrev
_citation_year
_citation_journal_volume
_citation_page_first
_citation_page_last
_citation_journal_id_ASTM
primary 'Inorganic Chemistry' 1982 21 4054 4058 INOCAJ
_publ_author_name                  'Hayden, T.D.;Kim, E.E.;Eriks, K.'
_cell_length_a                     7.352(2)
_cell_length_b                     21.502(5)
_cell_length_c                     5.370(1)
_cell_angle_alpha                  90.
_cell_angle_beta                   91.64(2)
_cell_angle_gamma                  90.
_cell_volume                       848.56
_cell_formula_units_Z              2
_symmetry_space_group_name_H-M     'P 1 21/n 1'
_symmetry_Int_Tables_number        14
_refine_ls_R_factor_all            .039
loop_
_symmetry_equiv_pos_site_id
_symmetry_equiv_pos_as_xyz
  1	'-x+.5, y+.5, -z+.5'
  2	'-x, -y, -z'
  3	'x+.5, -y+.5, z+.5'
  4	'x, y, z'
loop_
_atom_type_symbol
_atom_type_oxidation_number
C4+	4
H1+	1
Mg2+	2
N3-	-3
O2-	-2
P5+	5
loop_
_atom_site_label
_atom_site_type_symbol
_atom_site_symmetry_multiplicity
_atom_site_Wyckoff_symbol
_atom_site_fract_x
_atom_site_fract_y
_atom_site_fract_z
_atom_site_occupancy
_atom_site_attached_hydrogens
_atom_site_U_iso_or_equiv
Mg1 Mg2+ 2 a 0 0 0 1. 0 0 
P1 P5+ 4 e 0.1024(1) 0.0842 0.5108(1) 1. 0 0 
O1 O2- 4 e 0.1343(3) 0.0379(1) 0.3072(3) 1. 0 0 
O2 O2- 4 e 0.1331(3) 0.0630(1) 0.7756(3) 1. 0 0 
O3 O2- 4 e 0.2320(3) 0.1407(1) 0.4645(3) 1. 0 0 
O4 O2- 4 e -.0987(3) 0.1099(1) 0.4833(4) 1. 0 0 
O5 O2- 4 e -.2189(3) 0.0660(1) 0.0553(3) 1. 0 0 
O6 O2- 4 e 0.2568(3) 0.2245(1) 0.8165(4) 1. 0 0 
C1 C4+ 4 e -.3791(4) 0.0731(1) -.0302(5) 1. 0 0 
C2 C4+ 4 e 0.1313(4) 0.2366(1) 0.9612(5) 1. 0 0 
N1 N3- 4 e -.4365(4) 0.0442(1) -.2356(5) 1. 0 0 
N2 N3- 4 e -.4958(5) 0.1122(2) 0.0770(7) 1. 0 0 
N3 N3- 4 e -.0093(4) 0.1984(1) 0.9917(6) 1. 0 0 
N4 N3- 4 e 0.1297(4) 0.2900(1) 1.0890(6) 1. 0 0 
H1 H1+ 4 e 0.233(6) 0.167(2) 0.569(7) 1. 0 0.073(14) 
H2 H1+ 4 e -.145(6) 0.098(2) 0.340(8) 1. 0 0.098(15) 
H3 H1+ 4 e -.365(5) 0.018(2) -.308(6) 1. 0 0.052(10) 
H4 H1+ 4 e -.557(9) 0.046(3) -.275(10) 1. 0 0.132(23) 
H5 H1+ 4 e -.610(6) 0.117(2) 0.023(7) 1. 0 0.069(15) 
H6 H1+ 4 e -.459(5) 0.129(2) 0.206(6) 1. 0 0.040(11) 
H7 H1+ 4 e 0.004(6) 0.167(2) 0.932(7) 1. 0 0.058(15) 
H8 H1+ 4 e -.095(6) 0.213(2) 1.099(7) 1. 0 0.059(13) 
H9 H1+ 4 e 0.058(6) 0.295(2) 1.208(7) 1. 0 0.062(13) 
H10 H1+ 4 e 0.223(5) 0.312(2) 1.084(6) 1. 0 0.042(11) 

#End of data_35255-ICSD


