data_64685-ICSD
#?2014 by Fachinformationszentrum Karlsruhe, and the U.S. Secretary of 
#Commerce on behalf of the United States.  All rights reserved.
_database_code_ICSD                64685
_audit_creation_date               1997/11/10
_chemical_name_systematic
;
Magnesium Calcium Carbonate Borate Hydrate
;
_chemical_formula_structural       'Mg Ca2 (C O3)2 (B (O H)4)2 (H2 O)4'
_chemical_formula_sum              'C2 H16 B2 Ca2 Mg1 O18'
_chemical_name_mineral             Carboborite
_publ_section_title
;
The refinement of the crystal structure of carboborite
;
loop_
_citation_id
_citation_journal_abbrev
_citation_year
_citation_journal_volume
_citation_page_first
_citation_page_last
_citation_journal_id_ASTM
primary 'Bulletin de Mineralogie (101,1978-)' 1981 104 578 581 BULMD9
_publ_author_name                  'Ma, Z.;Shi, N.;Shen, J.;Peng, Z.'
_cell_length_a                     11.011(3)
_cell_length_b                     6.674(1)
_cell_length_c                     10.692(5)
_cell_angle_alpha                  90.
_cell_angle_beta                   116.64(3)
_cell_angle_gamma                  90.
_cell_volume                       702.32
_cell_formula_units_Z              2
_symmetry_space_group_name_H-M     'P 1 21/n 1'
_symmetry_Int_Tables_number        14
_refine_ls_R_factor_all            .043
loop_
_symmetry_equiv_pos_site_id
_symmetry_equiv_pos_as_xyz
  1	'-x+.5, y+.5, -z+.5'
  2	'-x, -y, -z'
  3	'x+.5, -y+.5, z+.5'
  4	'x, y, z'
loop_
_atom_type_symbol
_atom_type_oxidation_number
B3+	3
C4+	4
Ca2+	2
H1+	1
Mg2+	2
O2-	-2
loop_
_atom_site_label
_atom_site_type_symbol
_atom_site_symmetry_multiplicity
_atom_site_Wyckoff_symbol
_atom_site_fract_x
_atom_site_fract_y
_atom_site_fract_z
_atom_site_occupancy
_atom_site_attached_hydrogens
Ca1 Ca2+ 4 e 0.2985(1) 0.9987(1) 0.2391(1) 1. 0 
Mg1 Mg2+ 2 d 0.5 0 0 1. 0 
B1 B3+ 4 e 0.5080(3) -.2943(5) 0.2464(3) 1. 0 
C1 C4+ 4 e 0.2764(3) 0.2654(4) 0.0235(3) 1. 0 
O1 O2- 4 e 0.2052(2) 0.2860(3) 0.0904(2) 1. 0 
O2 O2- 4 e 0.3437(2) 0.1008(3) 0.0430(2) 1. 0 
O3 O2- 4 e 0.4121(2) 0.2975(3) 0.3838(2) 1. 0 
O4 O2- 4 e 0.2777(2) 0.4025(3) -.0589(2) 1. 0 
O5 O2- 4 e 0.5477(2) -.2232(3) 0.1414(2) 1. 0 
O6 O2- 4 e 0.5776(2) -.4827(3) 0.3093(2) 1. 0 
O7 O2- 4 e 0.5278(2) -.1362(3) 0.3497(2) 1. 0 
O8 O2- 4 e 0.6370(3) 0.1934(4) 0.1519(2) 1. 0 
O9 O2- 4 e 0.3593(2) -.3307(3) 0.1816(2) 1. 0 
H1 H1+ 4 e 0.116(6) 0.191(9) 0.631(5) 1. 0 
H2 H1+ 4 e 0.173(4) 0.120(6) 0.407(4) 1. 0 
H3 H1+ 4 e 0.338(4) 0.466(6) 0.624(4) 1. 0 
H4 H1+ 4 e 0.428(4) 0.305(6) 0.887(4) 1. 0 
H5 H1+ 4 e 0.401(5) 0.067(6) 0.615(4) 1. 0 
H6 H1+ 4 e 0.460(4) 0.267(6) 0.471(4) 1. 0 
H7 H1+ 4 e 0.168(5) 0.352(8) 0.724(5) 1. 0 
H8 H1+ 4 e 0.477(4) 0.350(6) 0.379(4) 1. 0 

#End of data_64685-ICSD


