data_63137-ICSD
#?2014 by Fachinformationszentrum Karlsruhe, and the U.S. Secretary of 
#Commerce on behalf of the United States.  All rights reserved.
_database_code_ICSD                63137
_audit_creation_date               1989/06/19
_audit_update_record               2012/02/01
_chemical_name_systematic
;
Potassium Magnesium Di-mue-hydrogen Bis(carbonate) Tetrahydrate
;
_chemical_formula_structural       'K Mg H (C O3)2 (H2 O)4'
_chemical_formula_sum              'C2 H9 K1 Mg1 O10'
_publ_section_title
;
Structure of potassium magnesium hydrogenbiscarbonate tetrahydrate.
;
loop_
_citation_id
_citation_journal_abbrev
_citation_year
_citation_journal_volume
_citation_page_first
_citation_page_last
_citation_journal_id_ASTM
primary 'Acta Crystallographica, Section C: Crystal Structure Communications'
 1988 44 1168 1172 ACSCEE
_publ_author_name
;
Fernandes, N.G.;Tellgren, R.;Olovsson, I.
;
_cell_length_a                     6.697(1)
_cell_length_b                     7.267(1)
_cell_length_c                     5.336(1)
_cell_angle_alpha                  107.04(2)
_cell_angle_beta                   107.83(2)
_cell_angle_gamma                  59.88(2)
_cell_volume                       210.75
_cell_formula_units_Z              1
_symmetry_space_group_name_H-M     'P -1'
_symmetry_Int_Tables_number        2
_refine_ls_R_factor_all            .023
loop_
_symmetry_equiv_pos_site_id
_symmetry_equiv_pos_as_xyz
  1	'-x, -y, -z'
  2	'x, y, z'
loop_
_atom_type_symbol
_atom_type_oxidation_number
C4+	4
H1+	1
K1+	1
Mg2+	2
O2-	-2
loop_
_atom_site_label
_atom_site_type_symbol
_atom_site_symmetry_multiplicity
_atom_site_Wyckoff_symbol
_atom_site_fract_x
_atom_site_fract_y
_atom_site_fract_z
_atom_site_occupancy
_atom_site_attached_hydrogens
_atom_site_U_iso_or_equiv
K1 K1+ 1 a 0 0 0 1. 0 0 
Mg1 Mg2+ 1 g 0 0.5 0.5 1. 0 0 
O1 O2- 2 i 0.01750(8) 0.76440(7) 0.46275(10) 1. 0 0 
O2 O2- 2 i 0.76303(8) 0.50848(7) 0.13598(9) 1. 0 0 
O3 O2- 2 i 0.26907(7) 0.29703(7) 0.29454(9) 1. 0 0 
O4 O2- 2 i 0.59682(7) 0.24438(7) 0.60899(9) 1. 0 0 
O5 O2- 2 i 0.62108(7) 0.05402(7) 0.20039(9) 1. 0 0 
C1 C4+ 2 i 0.49156(9) 0.20294(8) 0.37448(11) 1. 0 0 
H1 H1+ 2 i 0.130(2) 0.760(2) 0.421(2) 1. 0 0.025(3) 
H2 H1+ 2 i -.097(2) 0.856(2) 0.385(2) 1. 0 0.024(3) 
H3 H1+ 2 i 0.759(2) 0.568(2) 0.023(3) 1. 0 0.040(4) 
H4 H1+ 2 i 0.616(2) 0.597(2) 0.190(3) 1. 0 0.029(3) 
H5 H1+ 1 d 0.5 0 0 1. 0 0.060(7) 

#End of data_63137-ICSD


