data_172537-ICSD
#?2014 by Fachinformationszentrum Karlsruhe, and the U.S. Secretary of 
#Commerce on behalf of the United States.  All rights reserved.
_database_code_ICSD                172537
_audit_creation_date               2007/04/01
_chemical_name_systematic
;
Sodium 2-hydroxy-3,4-dioxocyclobut-1-ene-1-olate Hydrate
;
_chemical_formula_structural       'C4 H3 Na O5'
_chemical_formula_sum              'C4 H3 Na1 O5'
_publ_section_title
;
Sodium hydrogensquarate monohydrate
;
loop_
_citation_id
_citation_journal_abbrev
_citation_year
_citation_journal_volume
_citation_journal_issue
_citation_page_first
_citation_page_last
_citation_journal_id_ASTM
primary 'Acta Crystallographica, Section E. Structure Reports Online'
 2006 62 6 m1359 m1361 ACSEBH
_publ_author_name
;
Petrova, N.;Shivachev, B.;Kolev, T.;Petrova, R.
;
_cell_length_a                     3.6239(10)
_cell_length_b                     8.1320(11)
_cell_length_c                     9.392(4)
_cell_angle_alpha                  90.00
_cell_angle_beta                   97.97(3)
_cell_angle_gamma                  90.00
_cell_volume                       274.1
_cell_formula_units_Z              2
_symmetry_space_group_name_H-M     'P 1 c 1'
_symmetry_Int_Tables_number        7
_refine_ls_R_factor_all            .1029
loop_
_symmetry_equiv_pos_site_id
_symmetry_equiv_pos_as_xyz
  1	'x, -y, z+.5'
  2	'x, y, z'
loop_
_atom_type_symbol
_atom_type_oxidation_number
C1.5+	1.5
H1+	1
Na1+	1
O2-	-2
loop_
_atom_site_label
_atom_site_type_symbol
_atom_site_symmetry_multiplicity
_atom_site_Wyckoff_symbol
_atom_site_fract_x
_atom_site_fract_y
_atom_site_fract_z
_atom_site_occupancy
_atom_site_attached_hydrogens
_atom_site_U_iso_or_equiv
C1 C1.5+ 2 a 0.3223(18) 0.5547(8) 0.2768(7) 1 0 0.0166(13) 
C2 C1.5+ 2 a 0.0859(18) 0.5585(9) 0.1439(7) 1 0 0.0175(14) 
C3 C1.5+ 2 a 0.0926(19) 0.7337(9) 0.1359(8) 1 0 0.0188(14) 
C4 C1.5+ 2 a 0.3383(19) 0.7378(8) 0.2784(8) 1 0 0.0188(14) 
Na1 Na1+ 2 a 0.4546(8) 0.1373(4) 0.3563(4) 1 0 0.0262(6) 
O1 O2- 2 a 0.9008(14) 0.1342(6) 0.1946(5) 1 0 0.0280(12) 
H1 H1+ 2 a 0.8803 0.0357 0.1358 1 0 0.034 
H2 H1+ 2 a 0.8793 0.2304 0.1329 1 0 0.034 
O2 O2- 2 a 0.4713(17) 0.4414(6) 0.3569(6) 1 0 0.0225(10) 
O3 O2- 2 a -0.0862(13) 0.4435(6) 0.0638(5) 1 0 0.0204(11) 
H3 H1+ 2 a -0.2508 0.4671 -0.0028 1 0 0.024 
O4 O2- 2 a -0.0347(15) 0.8401(6) 0.0462(6) 1 0 0.0253(12) 
O5 O2- 2 a 0.482(2) 0.8418(6) 0.3596(8) 1 0 0.0289(12) 

loop_
_atom_site_aniso_label
_atom_site_aniso_type_symbol
_atom_site_aniso_U_11
_atom_site_aniso_U_22
_atom_site_aniso_U_33
_atom_site_aniso_U_12
_atom_site_aniso_U_13
_atom_site_aniso_U_23
C1 C1.5+ 0.018(3) 0.017(3) 0.015(3) -0.001(3) 0.000(2) 0.000(3)
C2 C1.5+ 0.018(3) 0.016(3) 0.017(3) -0.002(3) -0.002(2) 0.004(3)
C3 C1.5+ 0.021(3) 0.019(3) 0.015(3) -0.004(3) -0.001(2) 0.001(3)
C4 C1.5+ 0.019(3) 0.015(3) 0.020(3) -0.003(3) -0.004(3) 0.000(3)
Na1 Na1+ 0.0257(13) 0.0232(13) 0.0268(13) -0.0005(16) -0.0059(10) 
-0.0056(17)
O1 O2- 0.042(3) 0.017(2) 0.024(3) 0.001(3) 0.001(2) 0.002(2)
O2 O2- 0.029(2) 0.019(2) 0.016(2) 0.000(3) -0.0104(17) 0.000(3)
O3 O2- 0.025(2) 0.016(2) 0.017(2) -0.004(2) -0.0085(19) -0.003(2)
O4 O2- 0.035(3) 0.018(2) 0.019(2) 0.007(2) -0.009(2) 0.002(2)
O5 O2- 0.035(3) 0.018(2) 0.030(2) -0.005(3) -0.010(2) -0.004(3)
#End of data_172537-ICSD


