data_110569-ICSD
#?2014 by Fachinformationszentrum Karlsruhe, and the U.S. Secretary of 
#Commerce on behalf of the United States.  All rights reserved.
_database_code_ICSD                110569
_audit_creation_date               2008/08/01
_chemical_name_systematic
;
Dimethylammonium Hexaaquaaluminium Bis(sulfate(VI))
;
_chemical_formula_structural
;
((C H3)2 N H2) (Al (H2 O)6) (S O4)2
;
_chemical_formula_sum              'C2 H20 Al1 N1 O14 S2'
_publ_section_title
;
Structural and dielectric investigations of partially deuterated 
DMAAS crystals
;
loop_
_citation_id
_citation_journal_abbrev
_citation_year
_citation_journal_volume
_citation_page_first
_citation_page_last
_citation_journal_id_ASTM
primary Kristallografiya 1994 39 1078 1087 KRISAJ
2 'Crystallography Reports' 1994 39 990 990 CYSTE3
_publ_author_name
;
Kirpichnikova, L.F.;Pietraszko, A.;Lukaszewicz, K.;Shuvalov, 
L.A.;Dolbinina, V.V.;Yakovleva, L.M.
;
_cell_length_a                     6.44
_cell_length_b                     10.673
_cell_length_c                     11.116
_cell_angle_alpha                  90
_cell_angle_beta                   99.72
_cell_angle_gamma                  90
_cell_volume                       753.08
_cell_formula_units_Z              2
_symmetry_space_group_name_H-M     'P 1 n 1'
_symmetry_Int_Tables_number        7
_refine_ls_R_factor_all            .037
loop_
_symmetry_equiv_pos_site_id
_symmetry_equiv_pos_as_xyz
  1	'x+.5, -y, z+.5'
  2	'x, y, z'
loop_
_atom_type_symbol
_atom_type_oxidation_number
Al3+	3
C4+	4
H1-	-1
H1+	1
N3-	-3
O2-	-2
S6+	6
loop_
_atom_site_label
_atom_site_type_symbol
_atom_site_symmetry_multiplicity
_atom_site_Wyckoff_symbol
_atom_site_fract_x
_atom_site_fract_y
_atom_site_fract_z
_atom_site_occupancy
_atom_site_attached_hydrogens
_atom_site_U_iso_or_equiv
S1 S6+ 2 a 0.5628(2) -.4282(1) 0.7442(2) 1. 0 .019 
S2 S6+ 2 a -0.0606(2) 0.0651(1) -.2301(2) 1. 0 .020 
Al1 Al3+ 2 a 0.5 0.2512(1) 0.0061(2) 1. 0 .018 
O1 O2- 2 a 0.2904(4) 0.3281(3) -.1133(3) 1. 0 .020 
O2 O2- 2 a 0.7018(4) 0.1744(3) 0.1254(3) 1. 0 .022 
O3 O2- 2 a 0.7199(4) 0.3178(3) -.0618(3) 1. 0 .020 
O4 O2- 2 a 0.2747(4) 0.1805(3) 0.0731(3) 1. 0 .022 
O5 O2- 2 a 0.5041(4) 0.3982(3) 0.0993(3) 1. 0 .023 
O6 O2- 2 a 0.4934(4) 0.1054(3) -.0891(3) 1. 0 .022 
O7 O2- 2 a 0.5490(4) -.2906(3) 0.7236(3) 1. 0 .021 
O8 O2- 2 a 0.6919(4) -.4502(3) 0.8647(3) 1. 0 .028 
O9 O2- 2 a 0.3462(4) -.4773(3) 0.7449(3) 1. 0 .023 
O10 O2- 2 a 0.6547(4) -.4905(3) 0.6475(3) 1. 0 .028 
O11 O2- 2 a -.0500(4) 0.2004(3) -.2023(3) 1. 0 .024 
O12 O2- 2 a 0.1519(4) 0.0124(3) -.2236(3) 1. 0 .026 
O13 O2- 2 a -.1804(4) 0.0470(3) -.3526(3) 1. 0 .029 
O14 O2- 2 a -.1675(4) 0.0009(3) -.1412(3) 1. 0 .028 
C1 C4+ 2 a 0.3801(5) 0.2235(4) 0.5840(4) 1. 0 .039 
C2 C4+ 2 a 0.6411(5) 0.2728(4) 0.4509(4) 1. 0 .033 
N1 N3- 2 a 0.4219(5) 0.2377(3) 0.4610(4) 1. 0 .029 
H1 H1+ 2 a 0.186(1) 0.284(1) -.139(1) 1. 0 .02 
H2 H1+ 2 a 0.309(1) 0.385(1) -.157(1) 1. 0 .05 
H3 H1+ 2 a 0.828(1) 0.202(1) 0.136(1) 1. 0 .04 
H4 H1+ 2 a 0.683(1) 0.117(1) 0.172(1) 1. 0 .05 
H5 H1+ 2 a 0.786(1) 0.270(1) -.113(1) 1. 0 .03 
H6 H1+ 2 a 0.708(1) 0.394(1) -.082(1) 1. 0 .05 
H7 H1+ 2 a 0.206(1) 0.211(1) 0.110(1) 1. 0 .04 
H8 H1+ 2 a 0.285(1) 0.105(1) 0.098(1) 1. 0 .05 
H9 H1+ 2 a 0.388(1) 0.410(1) 0.096(1) 1. 0 .06 
H10 H1+ 2 a 0.628(1) 0.438(1) 0.145(1) 1. 0 .05 
H11 H1+ 2 a 0.600(1) 0.086(1) -.115(1) 1. 0 .06 
H12 H1+ 2 a 0.380(1) 0.059(1) -.121(1) 1. 0 .05 
H13 H1- 2 a 0.752(1) 0.793(1) 0.074(1) 1. 0 .05 
H14 H1- 2 a 0.909(1) 0.711(1) 0.125(1) 1. 0 .05 
H15 H1- 2 a 0.947(1) 0.831(1) 0.117(1) 1. 0 .05 
H16 H1- 2 a 0.182(1) 0.655(1) -.020(1) 1. 0 .05 
H17 H1- 2 a 0.200(1) 0.786(1) -.012(1) 1. 0 .05 
H18 H1- 2 a 0.180(1) 0.712(1) -.115(1) 1. 0 .05 
H19 H1+ 2 a 0.843(1) 0.700(1) -.081(1) 1. 0 .05 
H20 H1+ 2 a 0.890(1) 0.834(1) -.085(1) 1. 0 .05 

#End of data_110569-ICSD


