data_260302-ICSD
#?2014 by Fachinformationszentrum Karlsruhe, and the U.S. Secretary of 
#Commerce on behalf of the United States.  All rights reserved.
_database_code_ICSD                260302
_audit_creation_date               2009/08/01
_chemical_name_systematic
;
Tetrapotassium Hexacyanoferrate(II) Trihydrate
;
_chemical_formula_structural       'K4 Fe (C N)6 (H2 O)3'
_chemical_formula_sum              'C6 H6 Fe1 K4 N6 O3'
_publ_section_title
;
Polymorphism of potassium ferrocyanide trihydrate as studied by solid-
state multinuclear NMR spectroscopy and X-ray diffraction
;
loop_
_citation_id
_citation_journal_abbrev
_citation_year
_citation_journal_volume
_citation_journal_issue
_citation_page_first
_citation_page_last
_citation_journal_id_ASTM
primary 'Inorganic Chemistry' 2009 48 10 4342 4353 INOCAJ
_publ_author_name
;
Willans, M.J.;Wasylishen, R.E.;McDonald, R.
;
_cell_length_a                     9.3528(13)
_cell_length_b                     16.755(2)
_cell_length_c                     9.3591(13)
_cell_angle_alpha                  90.00
_cell_angle_beta                   90.076(2)
_cell_angle_gamma                  90.00
_cell_volume                       1466.63
_cell_formula_units_Z              4
_symmetry_space_group_name_H-M     'C 1 c 1'
_symmetry_Int_Tables_number        9
_refine_ls_R_factor_all            .0275
loop_
_symmetry_equiv_pos_site_id
_symmetry_equiv_pos_as_xyz
  1	'x, -y, z+.5'
  2	'x, y, z'
  3	'x+.5, -y+.5, z+.5'
  4	'x+.5, y+.5, z'
loop_
_atom_type_symbol
_atom_type_oxidation_number
C2+	2
Fe2+	2
H1+	1
K1+	1
N3-	-3
O2-	-2
loop_
_atom_site_label
_atom_site_type_symbol
_atom_site_symmetry_multiplicity
_atom_site_Wyckoff_symbol
_atom_site_fract_x
_atom_site_fract_y
_atom_site_fract_z
_atom_site_occupancy
_atom_site_attached_hydrogens
_atom_site_U_iso_or_equiv
Fe1 Fe2+ 4 a 0.00819(9) 0.17757(2) 0.25000(9) 1 0 0.01075(10) 
N1 N3- 4 a 0.3178(5) 0.18462(17) 0.3646(5) 1 0 0.0185(9) 
N2 N3- 4 a 0.1162(5) 0.18150(17) -0.0596(5) 1 0 0.0206(10) 
N3 N3- 4 a 0.0051(6) 0.35908(16) 0.2539(6) 1 0 0.0214(5) 
N4 N3- 4 a -0.3016(5) 0.1662(2) 0.1404(5) 1 0 0.0199(7) 
N5 N3- 4 a -0.1017(4) 0.1732(2) 0.5609(5) 1 0 0.0203(9) 
N6 N3- 4 a 0.0250(5) -0.00593(16) 0.2492(5) 1 0 0.0258(7) 
C1 C2+ 4 a 0.2010(4) 0.18206(17) 0.3209(4) 1 0 0.0123(8) 
C2 C2+ 4 a 0.0760(4) 0.17997(17) 0.0558(5) 1 0 0.0132(8) 
C3 C2+ 4 a 0.0050(5) 0.29357(17) 0.2513(6) 1 0 0.0129(5) 
C4 C2+ 4 a -0.1844(4) 0.17284(19) 0.1812(4) 1 0 0.0140(8) 
C5 C2+ 4 a -0.0611(4) 0.17558(19) 0.4417(4) 1 0 0.0149(9) 
C6 C2+ 4 a 0.0176(5) 0.06344(16) 0.2503(5) 1 0 0.0148(5) 
K1 K1+ 4 a 0.40770(8) 0.14506(5) 0.06432(8) 1 0 0.0200(2) 
K2 K1+ 4 a 0.32328(8) 0.36519(5) 0.34264(8) 1 0 0.0202(2) 
K3 K1+ 4 a 0.10358(8) 0.35825(5) -0.05848(8) 1 0 0.0181(2) 
K4 K1+ 4 a -0.30470(8) 0.35105(5) 0.15356(8) 1 0 0.01845(19) 
O1 O2- 4 a 0.2357(3) 0.00118(17) -0.0014(3) 1 0 0.0322(7) 
H1 H1+ 4 a 0.1465 0.0200 -0.0144 1 0 0.048 
H2 H1+ 4 a 0.2659 -0.0140 -0.0885 1 0 0.048 
O2 O2- 4 a 0.2489(4) 0.49626(17) 0.0316(4) 1 0 0.0433(8) 
H3 H1+ 4 a 0.3319 0.4794 0.0699 1 0 0.065 
H4 H1+ 4 a 0.1973 0.5165 0.1042 1 0 0.065 
O3 O2- 4 a 0.4596(3) 0.02959(15) 0.2744(3) 1 0 0.0335(6) 
H5 H1+ 4 a 0.3795 0.0107 0.3155 1 0 0.050 
H6 H1+ 4 a 0.5156 -0.0107 0.2444 1 0 0.050 

loop_
_atom_site_aniso_label
_atom_site_aniso_type_symbol
_atom_site_aniso_U_11
_atom_site_aniso_U_22
_atom_site_aniso_U_33
_atom_site_aniso_U_12
_atom_site_aniso_U_13
_atom_site_aniso_U_23
Fe1 Fe2+ 0.01072(17) 0.01170(18) 0.00984(17) -0.0001(2) 0.00012(12) 
0.0002(2)
N1 N3- 0.0169(19) 0.0227(17) 0.0159(19) 0.0004(13) -0.0009(14) -0.0006(13)
N2 N3- 0.021(2) 0.021(2) 0.020(2) 0.0015(13) 0.0000(17) -0.0006(14)
N3 N3- 0.0199(12) 0.0276(15) 0.0169(12) -0.0011(18) 0.0002(9) -0.0003(19)
N4 N3- 0.0099(16) 0.0366(17) 0.0131(18) 0.0017(15) 0.0006(13) -0.0054(17)
N5 N3- 0.0121(19) 0.039(3) 0.009(2) -0.0035(15) 0.0016(15) -0.0003(14)
N6 N3- 0.032(2) 0.0174(13) 0.0281(13) -0.0002(15) -0.0035(12) -0.0006(18)
C1 C2+ 0.016(2) 0.0116(18) 0.0090(18) 0.0007(12) 0.0029(16) 0.0001(11)
C2 C2+ 0.0111(19) 0.0113(18) 0.017(2) 0.0006(11) -0.0016(17) -0.0016(12)
C3 C2+ 0.0057(10) 0.0294(16) 0.0037(10) -0.003(2) -0.0002(8) 0.000(2)
C4 C2+ 0.019(2) 0.0116(18) 0.0113(19) 0.0008(13) 0.0038(17) -0.0003(12)
C5 C2+ 0.0129(19) 0.015(2) 0.016(2) 0.0007(12) -0.0042(17) -0.0011(12)
C6 C2+ 0.0137(13) 0.0174(13) 0.0133(11) 0.0007(17) -0.0012(10) 0.0029(17)
K1 K1+ 0.0161(4) 0.0259(5) 0.0179(5) 0.0003(3) -0.0012(3) 0.0001(3)
K2 K1+ 0.0208(5) 0.0234(4) 0.0165(4) -0.0005(3) 0.0010(3) -0.0016(3)
K3 K1+ 0.0178(4) 0.0201(5) 0.0166(4) -0.0008(3) -0.0001(3) -0.0006(3)
K4 K1+ 0.0160(4) 0.0249(4) 0.0145(4) 0.0004(3) 0.0003(3) 0.0011(3)
O1 O2- 0.0354(15) 0.0309(16) 0.0304(15) 0.0073(12) -0.0026(12) -0.0012(11)
O2 O2- 0.0405(17) 0.0267(16) 0.063(2) 0.0037(12) -0.0111(15) -0.0185(14)
O3 O2- 0.0386(16) 0.0180(12) 0.0440(16) -0.0022(11) 0.0025(12) -0.0014(11)
#End of data_260302-ICSD


