data_16043-ICSD
#?2014 by Fachinformationszentrum Karlsruhe, and the U.S. Secretary of 
#Commerce on behalf of the United States.  All rights reserved.
_database_code_ICSD                16043
_audit_creation_date               1980/01/01
_audit_update_record               2011/02/01
_chemical_name_systematic          'Potassium Tetracyanoaurate Hydrate'
_chemical_formula_structural       'K (Au (C N)4) H2 O'
_chemical_formula_sum              'C4 H2 Au1 K1 N4 O1'
_publ_section_title
;
Structure cristalline de l'auricyanure de potassium monohydrate par 
la diffraction des neutrons
;
loop_
_citation_id
_citation_journal_abbrev
_citation_year
_citation_journal_volume
_citation_page_first
_citation_page_last
_citation_journal_id_ASTM
primary 'Acta Crystallographica B (24,1968-38,1982)' 1970 26 422 428 ACBCAR
_publ_author_name                  'Bertinotti, C.;Bertinotti, A.'
_cell_length_a                     6.65
_cell_length_b                     7.12
_cell_length_c                     17.35
_cell_angle_alpha                  90.
_cell_angle_beta                   90.
_cell_angle_gamma                  90.
_cell_volume                       821.49
_cell_formula_units_Z              4
_symmetry_space_group_name_H-M     'P 21 21 21'
_symmetry_Int_Tables_number        19
_refine_ls_R_factor_all            .137
loop_
_symmetry_equiv_pos_site_id
_symmetry_equiv_pos_as_xyz
  1	'-x, y+.5, -z+.5'
  2	'x+.5, -y+.5, -z'
  3	'-x+.5, -y, z+.5'
  4	'x, y, z'
loop_
_atom_type_symbol
_atom_type_oxidation_number
Au3+	3
C2+	2
H1+	1
K1+	1
N3-	-3
O2-	-2
loop_
_atom_site_label
_atom_site_type_symbol
_atom_site_symmetry_multiplicity
_atom_site_Wyckoff_symbol
_atom_site_fract_x
_atom_site_fract_y
_atom_site_fract_z
_atom_site_occupancy
_atom_site_attached_hydrogens
_atom_site_B_iso_or_equiv
Au1 Au3+ 4 a 0.7589(9) -.0714(8) 0.7605(3) 1. 0 1.81 
K1 K1+ 4 a 0.2594(34) -.0364(25) 0.5178(8) 1. 0 3.3 
O1 O2- 4 a 0.6317(18) 0.1603(16) 0.5190(5) 1. 0 3.7 
N1 N3- 4 a 0.5846(11) 0.0855(8) 0.9151(3) 1. 0 3.1 
N2 N3- 4 a 0.1436(25) -.1922(9) 0.8480(4) 1. 0 4. 
N3 N3- 4 a 0.9269(10) -.2142(8) 0.6031(3) 1. 0 3.1 
N4 N3- 4 a 0.3643(10) 0.0449(9) 0.6753(3) 1. 0 3.5 
C1 C2+ 4 a 0.6453(11) 0.0274(9) 0.8580(3) 1. 0 2. 
C2 C2+ 4 a 0.0082(12) -.1458(10) 0.8146(3) 1. 0 2.4 
C3 C2+ 4 a 0.8559(24) -.1644(9) 0.6612(3) 1. 0 2. 
C4 C2+ 4 a 0.5059(12) 0.0014(10) 0.7070(3) 1. 0 2.1 
H1 H1+ 4 a 0.6754(34) 0.1844(25) 0.5681(9) 1. 0 4.8 
H2 H1+ 4 a 0.7168(49) 0.0917(33) 0.4926(12) 1. 0 5.5 

#End of data_16043-ICSD


