data_250382-ICSD
#?2014 by Fachinformationszentrum Karlsruhe, and the U.S. Secretary of 
#Commerce on behalf of the United States.  All rights reserved.
_database_code_ICSD                250382
_audit_creation_date               2007/04/01
_chemical_name_systematic
;
Tripotassium Dioxalatoisothiocyanatodioxouranate Trihydrate
;
_chemical_formula_structural
;
K3 ((U O2) (C2 O4)2 (N C S)) (H2 O)3
;
_chemical_formula_sum              'C5 H6 K3 N1 O13 S1 U1'
_publ_section_title
;
X-ray diffraction study of K3 (U O2 (C2 O4)2 (N C S))*3(H2 O)
;
loop_
_citation_id
_citation_journal_abbrev
_citation_year
_citation_journal_volume
_citation_journal_issue
_citation_page_first
_citation_page_last
_citation_journal_id_ASTM
primary 'Zhurnal Neorganicheskoi Khimii' 2006 51 3 451 455 ZNOKAQ
_publ_author_name
;
Mikhailov, Yu.N.;Orlova, I.M.;Shchelokov, R.N.;Gorbunova, 
Yu.E.;Akhmerkina, Zh.V.;Serezhkina, L.B.;Serezhkin, V.N.
;
_cell_length_a                     10.673(2)
_cell_length_b                     12.041(2)
_cell_length_c                     13.856(3)
_cell_angle_alpha                  90
_cell_angle_beta                   110.18(3)
_cell_angle_gamma                  90
_cell_volume                       1671.37
_cell_formula_units_Z              4
_symmetry_space_group_name_H-M     'P 1 21/n 1'
_symmetry_Int_Tables_number        14
_refine_ls_R_factor_all            .029
loop_
_symmetry_equiv_pos_site_id
_symmetry_equiv_pos_as_xyz
  1	'-x+.5, y+.5, -z+.5'
  2	'-x, -y, -z'
  3	'x+.5, -y+.5, z+.5'
  4	'x, y, z'
loop_
_atom_type_symbol
_atom_type_oxidation_number
C3+	3
C4+	4
H1+	1
K1+	1
N3-	-3
O2-	-2
S2-	-2
U6+	6
loop_
_atom_site_label
_atom_site_type_symbol
_atom_site_symmetry_multiplicity
_atom_site_Wyckoff_symbol
_atom_site_fract_x
_atom_site_fract_y
_atom_site_fract_z
_atom_site_occupancy
_atom_site_attached_hydrogens
_atom_site_U_iso_or_equiv
U1 U6+ 4 e 0.41383(2) 0.10702(2) 0.18807(2) 1 0 0.02330(8) 
S1 S2- 4 e 0.2611(2) 0.1538(2) -0.2060(1) 1 0 0.0408(4) 
O1 O2- 4 e 0.3942(5) -0.0860(4) 0.1500(4) 1 0 0.034(1) 
O2 O2- 4 e 0.4089(4) 0.3023(3) 0.1554(3) 1 0 0.0299(9) 
O3 O2- 4 e 0.2437(5) 0.1108(4) 0.1705(5) 1 0 0.048(1) 
O4 O2- 4 e 0.4542(6) -0.0069(3) 0.3334(3) 1 0 0.039(1) 
O5 O2- 4 e 0.5857(5) 0.1040(4) 0.2043(4) 1 0 0.038(1) 
O6 O2- 4 e 0.4523(5) 0.2191(3) 0.3365(3) 1 0 0.034(1) 
O7 O2- 4 e 0.4272(6) -0.2612(3) 0.2061(4) 1 0 0.048(1) 
O8 O2- 4 e 0.5183(7) -0.1718(4) 0.4043(4) 1 0 0.056(2) 
O9 O2- 4 e 0.4758(6) 0.3869(3) 0.4096(4) 1 0 0.043(1) 
O10 O2- 4 e 0.4418(5) 0.4749(4) 0.2149(4) 1 0 0.037(1) 
O11 O2- 4 e 0.2105(6) 0.3992(4) -0.0214(4) 1 0 0.047(1) 
O12 O2- 4 e 0.0675(6) 0.1269(5) -0.4677(4) 1 0 0.048(1) 
O13 O2- 4 e 0.2950(5) -0.1666(5) -0.0483(4) 1 0 0.026(1) 
N1 N3- 4 e 0.3640(8) 0.1134(5) 0.0038(5) 1 0 0.053(2) 
K1 K1+ 4 e 0.8590(2) 0.0810(2) 0.3478(1) 1 0 0.0486(4) 
K2 K1+ 4 e -0.0248(1) 0.1079(1) 0.1046(1) 1 0 0.0309(3) 
K3 K1+ 4 e 0.2765(2) 0.1030(1) 0.4214(1) 1 0 0.0392(3) 
H1 H1+ 4 e 0.2514(5) 0.3603(5) 0.0307(4) 1 0 0.06(3) 
H2 H1+ 4 e 0.1434(5) 0.3583(5) -0.0653(4) 1 0 0.07(3) 
H3 H1+ 4 e 0.1344(5) 0.1683(5) -0.4373(4) 1 0 0.10(4) 
H4 H1+ 4 e -0.0026(5) 0.1563(5) -0.4613(4) 1 0 0.06(3) 
H5 H1+ 4 e 0.3414(5) -0.1617(5) -0.0873(4) 1 0 0.05(2) 
H6 H1+ 4 e 0.3424(5) -0.1917(5) 0.0097(4) 1 0 0.07(3) 
C1 C3+ 4 e 0.4282(7) -0.1603(5) 0.2200(5) 1 0 0.032(1) 
C2 C3+ 4 e 0.4727(7) -0.1105(5) 0.3305(5) 1 0 0.034(1) 
C3 C3+ 4 e 0.4572(6) 0.3256(5) 0.3353(4) 1 0 0.029(1) 
C4 C3+ 4 e 0.4354(6) 0.3753(5) 0.2273(4) 1 0 0.027(1) 
C5 C4+ 4 e 0.3201(7) 0.1287(5) -0.0838(5) 1 0 0.035(1) 

#End of data_250382-ICSD


