data_260040-ICSD
#?2014 by Fachinformationszentrum Karlsruhe, and the U.S. Secretary of 
#Commerce on behalf of the United States.  All rights reserved.
_database_code_ICSD                260040
_audit_creation_date               2009/02/01
_audit_update_record               2012/02/01
_chemical_name_systematic
;
Diaquadisodium Dimagnesium Trioxalate
;
_chemical_formula_structural       '(Na (H2 O))2 Mg2 (C2 O4)3'
_chemical_formula_sum              'C6 H4 Mg2 Na2 O14'
_publ_section_title
;
Poly[disodium [diaquatri-mue2-oxalato-dimagnesium(II)]]
;
loop_
_citation_id
_citation_journal_abbrev
_citation_year
_citation_journal_volume
_citation_journal_issue
_citation_page_first
_citation_page_last
_citation_journal_id_ASTM
primary 'Acta Crystallographica, Section E. Structure Reports Online'
 2008 64 8 m983 m983 ACSEBH
_publ_author_name
;
Chen Xue An;Song Fangping;Chang Xi Nan;Zang Hegui;Xiao Wei Qiang
;
_cell_length_a                     5.8460(12)
_cell_length_b                     15.726(3)
_cell_length_c                     7.0190(14)
_cell_angle_alpha                  90.00
_cell_angle_beta                   101.11(3)
_cell_angle_gamma                  90.00
_cell_volume                       633.19
_cell_formula_units_Z              2
_symmetry_space_group_name_H-M     'P 1 21/c 1'
_symmetry_Int_Tables_number        14
_refine_ls_R_factor_all            .0334
loop_
_symmetry_equiv_pos_site_id
_symmetry_equiv_pos_as_xyz
  1	'x, -y+.5, z+.5'
  2	'-x, -y, -z'
  3	'-x, y+.5, -z+.5'
  4	'x, y, z'
loop_
_atom_type_symbol
_atom_type_oxidation_number
C3+	3
H1+	1
Mg2+	2
Na1+	1
O2-	-2
loop_
_atom_site_label
_atom_site_type_symbol
_atom_site_symmetry_multiplicity
_atom_site_Wyckoff_symbol
_atom_site_fract_x
_atom_site_fract_y
_atom_site_fract_z
_atom_site_occupancy
_atom_site_attached_hydrogens
_atom_site_U_iso_or_equiv
Na1 Na1+ 4 e 0.46789(7) 0.81852(3) 0.30526(7) 1 0 0.01952(13) 
Mg1 Mg2+ 4 e 0.27308(6) 0.60144(2) 0.21580(5) 1 0 0.01297(12) 
C1 C3+ 4 e 0.49584(17) 0.46394(6) 0.42523(14) 1 0 0.01492(18) 
O1 O2- 4 e 0.38596(15) 0.47765(5) 0.25634(11) 1 0 0.01885(17) 
O2 O2- 4 e 0.60143(15) 0.39673(5) 0.48571(11) 1 0 0.02059(18) 
C2 C3+ 4 e 0.79984(15) 0.64930(6) 0.21459(13) 1 0 0.01346(18) 
O3 O2- 4 e 0.58217(13) 0.65770(5) 0.17720(13) 1 0 0.02067(17) 
O4 O2- 4 e 0.91349(13) 0.58130(5) 0.22737(12) 1 0 0.01867(17) 
C3 C3+ 4 e 0.94672(16) 0.73184(6) 0.24642(14) 1 0 0.01425(18) 
O5 O2- 4 e 1.15751(12) 0.72335(5) 0.23254(12) 1 0 0.01735(17) 
O6 O2- 4 e 0.85117(14) 0.79871(5) 0.28409(15) 1 0 0.0255(2) 
O7 O2- 4 e 0.18307(14) 0.58554(5) -0.08136(12) 1 0 0.01742(16) 
H1 H1+ 4 e 0.174(4) 0.5388(16) -0.124(4) 1 0 0.058(7) 
H2 H1+ 4 e 0.065(5) 0.6120(18) -0.141(4) 1 0 0.077(9) 

loop_
_atom_site_aniso_label
_atom_site_aniso_type_symbol
_atom_site_aniso_U_11
_atom_site_aniso_U_22
_atom_site_aniso_U_33
_atom_site_aniso_U_12
_atom_site_aniso_U_13
_atom_site_aniso_U_23
Na1 Na1+ 0.0152(2) 0.0208(2) 0.0230(2) -0.00005(15) 0.00461(16) 0.00233(16)
Mg1 Mg2+ 0.01111(17) 0.01020(17) 0.01744(18) 0.00096(10) 0.00233(12) 
0.00035(10)
C1 C3+ 0.0171(4) 0.0111(4) 0.0166(4) 0.0015(3) 0.0031(3) -0.0012(3)
O1 O2- 0.0258(4) 0.0130(3) 0.0161(3) 0.0031(3) -0.0001(3) -0.0011(2)
O2 O2- 0.0289(4) 0.0134(3) 0.0179(3) 0.0080(3) 0.0005(3) -0.0014(2)
C2 C3+ 0.0104(4) 0.0140(4) 0.0165(4) -0.0015(3) 0.0039(3) -0.0008(3)
O3 O2- 0.0100(3) 0.0223(4) 0.0300(4) -0.0018(3) 0.0045(3) 0.0009(3)
O4 O2- 0.0147(3) 0.0120(3) 0.0297(4) -0.0007(2) 0.0054(3) -0.0008(3)
C3 C3+ 0.0105(4) 0.0120(4) 0.0200(4) 0.0002(3) 0.0022(3) -0.0009(3)
O5 O2- 0.0102(3) 0.0113(3) 0.0310(4) 0.0000(2) 0.0051(3) -0.0008(3)
O6 O2- 0.0150(3) 0.0144(3) 0.0470(5) 0.0026(3) 0.0062(3) -0.0083(3)
O7 O2- 0.0176(3) 0.0148(3) 0.0191(3) 0.0019(3) 0.0017(3) -0.0011(2)
#End of data_260040-ICSD


