data_170215-ICSD
#?2014 by Fachinformationszentrum Karlsruhe, and the U.S. Secretary of 
#Commerce on behalf of the United States.  All rights reserved.
_database_code_ICSD                170215
_audit_creation_date               2006/04/01
_chemical_name_systematic
;
Yttrium Potassium Squarate Hexahydrate
;
_chemical_formula_structural       '(Y (H2 O)6) K (H2 C4 O4) (C4 O4)2'
_chemical_formula_sum              'C12 H14 K1 O18 Y1'
_publ_section_title
;
Synthesis, crystal structure from single-crystal and powder x-ray 
diffraction data, and thermal behavior of mixed potassium lanthanide 
squarates: thermal transformations of layered [Ln (H2 O)6)] K (H2 C2 
O4) (C4 O4)2 into pillared Ln K (C4 O4)2 (Ln = Y, L
;
loop_
_citation_id
_citation_journal_abbrev
_citation_year
_citation_journal_volume
_citation_journal_issue
_citation_page_first
_citation_page_last
_citation_journal_id_ASTM
primary 'Inorganic Chemistry' 2004 43 26 8379 8386 INOCAJ
_publ_author_name                  'Mahe, N.;Bataille, T.'
_cell_length_a                     8.3341(2)
_cell_length_b                     37.7094(9)
_cell_length_c                     11.7195(3)
_cell_angle_alpha                  90
_cell_angle_beta                   90.3959(9)
_cell_angle_gamma                  90
_cell_volume                       3683.05
_cell_formula_units_Z              8
_symmetry_space_group_name_H-M     'C 1 2/c 1'
_symmetry_Int_Tables_number        15
_refine_ls_R_factor_all            .0998
loop_
_symmetry_equiv_pos_site_id
_symmetry_equiv_pos_as_xyz
  1	'x, -y, z+.5'
  2	'-x, -y, -z'
  3	'-x, y, -z+.5'
  4	'x, y, z'
  5	'x+.5, -y+.5, z+.5'
  6	'-x+.5, -y+.5, -z'
  7	'-x+.5, y+.5, -z+.5'
  8	'x+.5, y+.5, z'
loop_
_atom_type_symbol
_atom_type_oxidation_number
C1.5+	1.5
H1+	1
K1+	1
O2-	-2
Y3+	3
loop_
_atom_site_label
_atom_site_type_symbol
_atom_site_symmetry_multiplicity
_atom_site_Wyckoff_symbol
_atom_site_fract_x
_atom_site_fract_y
_atom_site_fract_z
_atom_site_occupancy
_atom_site_attached_hydrogens
_atom_site_U_iso_or_equiv
Y1 Y3+ 4 e 0.5000 0.324787(19) 0.2500 1 0 0.01768(19) 
Y2 Y3+ 4 e 0.0000 0.676793(19) 0.2500 1 0 0.0193(2) 
K1 K1+ 4 e 0.5000 0.44179(5) 0.2500 1 0 0.0271(4) 
K2 K1+ 4 e 0.0000 0.55993(5) 0.2500 1 0 0.0281(4) 
C1 C1.5+ 8 f 0.2530(7) 0.26270(18) 0.1385(6) 1 0 0.0305(13) 
C2 C1.5+ 8 f 0.0871(6) 0.27527(17) 0.1172(6) 1 0 0.0269(12) 
C3 C1.5+ 8 f 0.0380(7) 0.23599(18) 0.1142(5) 1 0 0.0281(12) 
C4 C1.5+ 8 f 0.2059(7) 0.22567(18) 0.1342(6) 1 0 0.0290(13) 
O1 O2- 8 f 0.3896(5) 0.27816(11) 0.1490(4) 1 0 0.0238(8) 
O2 O2- 8 f 0.0174(6) 0.30313(13) 0.1180(5) 1 0 0.0379(11) 
O3 O2- 8 f -0.0892(5) 0.22007(13) 0.1023(4) 1 0 0.0324(10) 
O4 O2- 8 f 0.2785(5) 0.19652(12) 0.1447(5) 1 0 0.0357(11) 
C5 C1.5+ 8 f 0.5452(6) 0.53287(15) 0.3829(5) 1 0 0.0215(11) 
C6 C1.5+ 8 f 0.6121(6) 0.56859(14) 0.3835(5) 1 0 0.0199(10) 
C7 C1.5+ 8 f 0.4470(6) 0.58303(14) 0.3989(5) 1 0 0.0205(10) 
C8 C1.5+ 8 f 0.3871(6) 0.54660(14) 0.3937(5) 1 0 0.0199(10) 
O5 O2- 8 f 0.6028(5) 0.50166(11) 0.3728(4) 1 0 0.0251(9) 
H1 H1+ 8 f 0.719(4) 0.504(2) 0.385(6) 1 0 0.038 
O6 O2- 8 f -0.2546(5) 0.58201(12) 0.3699(4) 1 0 0.0311(10) 
O7 O2- 8 f 0.3921(5) 0.61312(11) 0.4105(4) 1 0 0.0306(10) 
O8 O2- 8 f 0.2455(5) 0.53309(12) 0.3911(4) 1 0 0.0285(9) 
H2 H1+ 8 f 0.260(10) 0.5075(8) 0.383(7) 1 0 0.043 
C9 C1.5+ 8 f 0.1102(6) 0.43201(14) 0.1151(5) 1 0 0.0203(10) 
C10 C1.5+ 8 f -0.0558(6) 0.41768(15) 0.1008(5) 1 0 0.0210(10) 
C11 C1.5+ 8 f -0.1147(6) 0.45423(14) 0.1079(5) 1 0 0.0185(10) 
C12 C1.5+ 8 f 0.0455(6) 0.46791(15) 0.1168(5) 1 0 0.0206(10) 
O9 O2- 8 f 0.2444(5) 0.41865(11) 0.1290(4) 1 0 0.0309(10) 
O10 O2- 8 f -0.1110(5) 0.38760(11) 0.0898(4) 1 0 0.0315(10) 
O11 O2- 8 f 0.7439(5) 0.46760(11) 0.1097(4) 1 0 0.0274(9) 
O12 O2- 8 f 0.1013(5) 0.49907(11) 0.1268(4) 1 0 0.0284(9) 
O13 O2- 8 f 0.4339(5) 0.37429(12) 0.3724(4) 1 0 0.0282(9) 
H3 H1+ 8 f 0.323(3) 0.373(2) 0.398(6) 1 0 0.042 
H4 H1+ 8 f 0.498(6) 0.378(2) 0.441(4) 1 0 0.042 
O14 O2- 8 f 0.2639(5) 0.34776(11) 0.1691(5) 1 0 0.0321(10) 
H5 H1+ 8 f 0.166(5) 0.3350(16) 0.157(7) 1 0 0.048 
H6 H1+ 8 f 0.244(8) 0.3727(6) 0.169(7) 1 0 0.048 
O15 O2- 8 f 0.3041(6) 0.30396(12) 0.3786(4) 1 0 0.0326(10) 
H7 H1+ 8 f 0.330(8) 0.295(2) 0.453(3) 1 0 0.049 
H8 H1+ 8 f 0.193(3) 0.310(2) 0.378(6) 1 0 0.049 
O16 O2- 8 f -0.0736(5) 0.62864(12) 0.1238(4) 1 0 0.0298(10) 
H9 H1+ 8 f -0.183(4) 0.622(2) 0.107(6) 1 0 0.045 
H10 H1+ 8 f -0.015(7) 0.630(2) 0.053(4) 1 0 0.045 
O17 O2- 8 f -0.0969(5) 0.72295(10) 0.3602(4) 1 0 0.0256(9) 
H11 H1+ 8 f -0.040(7) 0.7456(10) 0.355(7) 1 0 0.038 
H12 H1+ 8 f -0.211(3) 0.7314(17) 0.370(7) 1 0 0.038 
O18 O2- 8 f -0.2301(5) 0.65374(12) 0.3431(5) 1 0 0.0343(11) 
H13 H1+ 8 f -0.328(6) 0.6646(17) 0.370(7) 1 0 0.051 
H14 H1+ 8 f -0.242(9) 0.6284(6) 0.355(7) 1 0 0.051 

loop_
_atom_site_aniso_label
_atom_site_aniso_type_symbol
_atom_site_aniso_U_11
_atom_site_aniso_U_22
_atom_site_aniso_U_33
_atom_site_aniso_U_12
_atom_site_aniso_U_13
_atom_site_aniso_U_23
Y1 Y3+ 0.0135(3) 0.0148(3) 0.0247(4) 0.000 -0.0022(2) 0.000
Y2 Y3+ 0.0145(3) 0.0154(4) 0.0280(4) 0.000 0.0008(3) 0.000
K1 K1+ 0.0187(8) 0.0242(9) 0.0384(10) 0.000 -0.0031(7) 0.000
K2 K1+ 0.0205(8) 0.0239(9) 0.0399(11) 0.000 0.0031(7) 0.000
C1 C1.5+ 0.023(3) 0.034(3) 0.035(3) 0.005(2) -0.001(2) 0.003(3)
C2 C1.5+ 0.012(2) 0.032(3) 0.037(3) -0.001(2) 0.000(2) -0.012(3)
C3 C1.5+ 0.020(3) 0.036(3) 0.029(3) 0.000(2) 0.000(2) -0.002(2)
C4 C1.5+ 0.020(3) 0.033(3) 0.033(3) -0.001(2) -0.004(2) -0.001(3)
O1 O2- 0.0171(18) 0.023(2) 0.032(2) -0.0013(15) -0.0037(15) -0.0007(17)
O2 O2- 0.027(2) 0.031(3) 0.055(3) 0.0032(19) -0.004(2) -0.003(2)
O3 O2- 0.0165(19) 0.036(3) 0.045(3) -0.0036(17) -0.0007(18) 0.005(2)
O4 O2- 0.028(2) 0.022(2) 0.057(3) 0.0015(17) -0.020(2) -0.001(2)
C5 C1.5+ 0.019(3) 0.018(3) 0.028(3) -0.0031(19) -0.001(2) -0.001(2)
C6 C1.5+ 0.018(2) 0.015(2) 0.026(3) 0.0000(18) 0.000(2) -0.005(2)
C7 C1.5+ 0.020(3) 0.017(2) 0.024(3) 0.0031(19) -0.0011(19) -0.004(2)
C8 C1.5+ 0.020(2) 0.015(2) 0.025(3) -0.0001(18) 0.001(2) 0.0000(19)
O5 O2- 0.0189(19) 0.0168(19) 0.039(2) 0.0023(14) -0.0009(16) -0.0037(17)
O6 O2- 0.020(2) 0.025(2) 0.048(3) -0.0043(16) 0.0046(18) 0.0013(19)
O7 O2- 0.027(2) 0.020(2) 0.044(3) 0.0051(16) 0.0006(19) -0.0044(18)
O8 O2- 0.0165(18) 0.024(2) 0.044(3) 0.0000(16) -0.0014(17) -0.0004(19)
C9 C1.5+ 0.019(2) 0.016(2) 0.026(3) -0.0018(19) -0.0021(19) -0.004(2)
C10 C1.5+ 0.019(3) 0.018(2) 0.025(3) 0.0015(19) 0.000(2) 0.001(2)
C11 C1.5+ 0.020(2) 0.015(2) 0.020(3) -0.0020(18) 0.0009(19) -0.0002(19)
C12 C1.5+ 0.016(2) 0.019(3) 0.027(3) -0.0009(19) 0.0004(19) -0.002(2)
O9 O2- 0.0162(19) 0.022(2) 0.055(3) 0.0036(15) -0.0052(18) 0.0013(19)
O10 O2- 0.025(2) 0.019(2) 0.051(3) -0.0041(16) 0.0020(19) 0.0026(19)
O11 O2- 0.0148(18) 0.020(2) 0.047(3) 0.0032(15) 0.0014(16) 0.0006(18)
O12 O2- 0.021(2) 0.0143(18) 0.050(3) -0.0008(15) 0.0013(18) -0.0010(18)
O13 O2- 0.019(2) 0.030(2) 0.035(2) 0.0015(16) -0.0020(16) -0.0091(19)
O14 O2- 0.019(2) 0.020(2) 0.057(3) 0.0023(16) -0.0134(19) 0.008(2)
O15 O2- 0.025(2) 0.028(2) 0.045(3) 0.0020(17) 0.0122(19) 0.008(2)
O16 O2- 0.019(2) 0.028(2) 0.043(3) -0.0010(16) -0.0011(17) -0.0095(19)
O17 O2- 0.0214(19) 0.0152(19) 0.040(2) 0.0007(15) 0.0052(17) -0.0025(17)
O18 O2- 0.020(2) 0.024(2) 0.059(3) 0.0010(16) 0.008(2) 0.010(2)
#End of data_170215-ICSD


