data_249107-ICSD
#?2014 by Fachinformationszentrum Karlsruhe, and the U.S. Secretary of 
#Commerce on behalf of the United States.  All rights reserved.
_database_code_ICSD                249107
_audit_creation_date               2007/08/01
_chemical_name_systematic
;
Magnesium Hexahydrate Magnesium (dichloromethylene)bis(phosphonate)-
hydrate Heptahydrate
;
_chemical_formula_structural
;
Mg (H2 O)6 (Mg (Cl2 C P2 O6) (H2 O)) (H2 O)7
;
_chemical_formula_sum              'C1 H28 Cl2 Mg2 O20 P2'
_publ_section_title
;
X-ray diffraction study of polymeric Mg complexes of clodronic acid
;
loop_
_citation_id
_citation_journal_abbrev
_citation_year
_citation_journal_volume
_citation_journal_issue
_citation_page_first
_citation_page_last
_citation_journal_id_ASTM
primary 'Solid State Sciences' 2006 8 9 1098 1102 SSSCFJ
_publ_author_name
;
Kontturi, M.;Kunnas-Hiltunen, S.;Vepsaelaeinen, J.J.;Ahlgren, M.
;
_cell_length_a                     7.86310(10)
_cell_length_b                     20.4772(3)
_cell_length_c                     12.7096(2)
_cell_angle_alpha                  90.00
_cell_angle_beta                   97.4350(10)
_cell_angle_gamma                  90.00
_cell_volume                       2029.22
_cell_formula_units_Z              4
_symmetry_space_group_name_H-M     'P 1 21/m 1'
_symmetry_Int_Tables_number        11
_refine_ls_R_factor_all            .0526
loop_
_symmetry_equiv_pos_site_id
_symmetry_equiv_pos_as_xyz
  1	'x, -y+.5, z'
  2	'-x, -y, -z'
  3	'-x, y+.5, -z'
  4	'x, y, z'
loop_
_atom_type_symbol
_atom_type_oxidation_number
C4+	4
Cl1-	-1
H1+	1
Mg2+	2
O2-	-2
P3+	3
loop_
_atom_site_label
_atom_site_type_symbol
_atom_site_symmetry_multiplicity
_atom_site_Wyckoff_symbol
_atom_site_fract_x
_atom_site_fract_y
_atom_site_fract_z
_atom_site_occupancy
_atom_site_attached_hydrogens
_atom_site_U_iso_or_equiv
Cl1 Cl1- 2 e 0.38552(10) 0.2500 -0.26237(6) 1 0 0.01201(17) 
Cl2 Cl1- 2 e 0.74733(10) 0.2500 -0.28583(6) 1 0 0.01024(16) 
Cl3 Cl1- 2 e 0.37392(10) 0.2500 0.39839(6) 1 0 0.01231(17) 
Cl4 Cl1- 2 e 0.00266(10) 0.2500 0.35849(6) 1 0 0.01166(17) 
P1 P3+ 4 f 0.63168(7) 0.17436(3) -0.11042(4) 1 0 0.00594(13) 
P2 P3+ 4 f 0.19973(7) 0.17427(3) 0.21637(4) 1 0 0.00614(13) 
Mg1 Mg2+ 2 e 0.42534(13) 0.2500 0.05705(8) 1 0 0.0068(2) 
Mg2 Mg2+ 2 e 0.93039(13) 0.2500 0.04076(8) 1 0 0.0065(2) 
Mg3 Mg2+ 4 f 0.69572(9) 0.04618(4) 0.21183(6) 1 0 0.00823(17) 
O1 O2- 2 e 0.7099(3) 0.2500 0.12987(18) 1 0 0.0085(4) 
H1 H1+ 4 f 0.7247 0.2113 0.1769 1 0 0.013 
O2 O2- 2 e 0.1695(3) 0.2500 -0.03721(18) 1 0 0.0086(4) 
H2 H1+ 4 f 0.1640 0.2112 -0.0840 1 0 0.013 
O3 O2- 4 f 0.6655(2) 0.14442(8) 0.25333(13) 1 0 0.0095(3) 
H3 H1+ 4 f 0.5735 0.1625 0.2251 1 0 0.014 
H4 H1+ 4 f 0.6970 0.1636 0.3120 1 0 0.014 
O4 O2- 4 f 0.5028(2) 0.03282(8) 0.31201(14) 1 0 0.0137(4) 
H5 H1+ 4 f 0.4132 0.0559 0.3132 1 0 0.021 
H6 H1+ 4 f 0.5003 0.0024 0.3573 1 0 0.021 
O5 O2- 4 f 0.6956(2) -0.05161(8) 0.19570(15) 1 0 0.0145(4) 
H7 H1+ 4 f 0.5978 -0.0697 0.1830 1 0 0.022 
H8 H1+ 4 f 0.7711 -0.0807 0.1903 1 0 0.022 
O6 O2- 4 f 0.8836(2) 0.05931(8) 0.11291(13) 1 0 0.0108(3) 
H9 H1+ 4 f 0.9316 0.0966 0.1117 1 0 0.016 
H10 H1+ 4 f 0.8553 0.0524 0.0471 1 0 0.016 
O7 O2- 4 f 0.5133(2) 0.05963(8) 0.08226(13) 1 0 0.0115(3) 
H11 H1+ 4 f 0.4997 0.0978 0.0582 1 0 0.017 
H12 H1+ 4 f 0.4200 0.0412 0.0786 1 0 0.017 
O8 O2- 4 f 0.9089(2) 0.04745(8) 0.33068(13) 1 0 0.0117(3) 
H13 H1+ 4 f 0.9213 0.0285 0.3907 1 0 0.018 
H14 H1+ 4 f 1.0036 0.0657 0.3230 1 0 0.018 
O9 O2- 4 f 0.4991(2) 0.17695(8) -0.03371(12) 1 0 0.0081(3) 
O10 O2- 4 f 0.81552(19) 0.17956(8) -0.05700(12) 1 0 0.0079(3) 
O11 O2- 4 f 0.6072(2) 0.11638(8) -0.18535(13) 1 0 0.0088(3) 
O12 O2- 4 f 0.3625(2) 0.18179(8) 0.16386(13) 1 0 0.0082(3) 
O13 O2- 4 f 0.2059(2) 0.11588(8) 0.29034(13) 1 0 0.0087(3) 
O14 O2- 4 f 0.0374(2) 0.17767(8) 0.13774(13) 1 0 0.0087(3) 
O15 O2- 4 f 0.5728(2) 0.09562(9) -0.39322(14) 1 0 0.0141(4) 
H15 H1+ 4 f 0.5694 0.1184 -0.3376 1 0 0.021 
H16 H1+ 4 f 0.4936 0.1092 -0.4400 1 0 0.021 
O16 O2- 4 f 1.0726(2) 0.14619(9) -0.17195(14) 1 0 0.0142(4) 
H17 H1+ 4 f 0.9729 0.1514 -0.1466 1 0 0.021 
H18 H1+ 4 f 1.0558 0.1476 -0.2363 1 0 0.021 
O17 O2- 4 f 0.7917(2) 0.01201(8) -0.08965(14) 1 0 0.0135(4) 
H19 H1+ 4 f 0.8723 -0.0061 -0.1153 1 0 0.020 
H20 H1+ 4 f 0.7552 0.0420 -0.1288 1 0 0.020 
O18 O2- 4 f 0.8405(2) 0.03250(9) 0.53622(14) 1 0 0.0150(4) 
H21 H1+ 4 f 0.7600 0.0554 0.5587 1 0 0.022 
H22 H1+ 4 f 0.9284 0.0324 0.5834 1 0 0.022 
O19 O2- 4 f 0.7346(2) 0.18034(9) 0.46967(13) 1 0 0.0127(3) 
H23 H1+ 4 f 0.6409 0.2021 0.4576 1 0 0.019 
H24 H1+ 4 f 0.7155 0.1484 0.5091 1 0 0.019 
O20 O2- 4 f 0.2510(2) 0.09933(9) 0.50494(14) 1 0 0.0144(4) 
H25 H1+ 4 f 0.2175 0.0598 0.5039 1 0 0.022 
H26 H1+ 4 f 0.2407 0.1071 0.4386 1 0 0.022 
O21 O2- 4 f 0.0442(2) 0.18087(9) 0.61019(14) 1 0 0.0157(4) 
H27 H1+ 4 f 0.1228 0.1600 0.5835 1 0 0.024 
H28 H1+ 4 f -0.0508 0.1763 0.5707 1 0 0.024 
C1 C4+ 2 e 0.5978(4) 0.2500 -0.1912(3) 1 0 0.0075(6) 
C2 C4+ 2 e 0.1933(4) 0.2500 0.2962(2) 1 0 0.0076(6) 

loop_
_atom_site_aniso_label
_atom_site_aniso_type_symbol
_atom_site_aniso_U_11
_atom_site_aniso_U_22
_atom_site_aniso_U_33
_atom_site_aniso_U_12
_atom_site_aniso_U_13
_atom_site_aniso_U_23
Cl1 Cl1- 0.0084(3) 0.0151(4) 0.0114(4) 0.000 -0.0030(3) 0.000
Cl2 Cl1- 0.0122(4) 0.0104(4) 0.0092(4) 0.000 0.0056(3) 0.000
Cl3 Cl1- 0.0116(4) 0.0130(4) 0.0109(4) 0.000 -0.0037(3) 0.000
Cl4 Cl1- 0.0098(3) 0.0155(4) 0.0108(4) 0.000 0.0055(3) 0.000
P1 P3+ 0.0063(3) 0.0050(3) 0.0066(3) -0.0002(2) 0.0010(2) -0.0003(2)
P2 P3+ 0.0060(3) 0.0054(3) 0.0070(3) 0.0001(2) 0.0011(2) 0.0006(2)
Mg1 Mg2+ 0.0073(5) 0.0060(5) 0.0073(5) 0.000 0.0022(4) 0.000
Mg2 Mg2+ 0.0065(5) 0.0058(5) 0.0069(5) 0.000 -0.0003(4) 0.000
Mg3 Mg2+ 0.0082(4) 0.0063(4) 0.0101(4) -0.0002(3) 0.0008(3) -0.0001(3)
O1 O2- 0.0102(11) 0.0067(11) 0.0084(11) 0.000 0.0007(8) 0.000
O2 O2- 0.0079(10) 0.0083(11) 0.0096(11) 0.000 0.0016(8) 0.000
O3 O2- 0.0089(7) 0.0081(8) 0.0106(8) 0.0011(6) -0.0012(6) 0.0004(6)
O4 O2- 0.0129(8) 0.0118(9) 0.0177(9) 0.0020(7) 0.0062(7) 0.0046(7)
O5 O2- 0.0082(8) 0.0065(8) 0.0291(10) -0.0001(6) 0.0036(7) -0.0025(7)
O6 O2- 0.0117(8) 0.0099(8) 0.0108(8) -0.0038(6) 0.0017(6) -0.0001(6)
O7 O2- 0.0110(8) 0.0082(8) 0.0146(8) -0.0019(6) -0.0014(6) 0.0013(6)
O8 O2- 0.0098(8) 0.0137(9) 0.0113(8) -0.0011(6) 0.0004(6) 0.0035(7)
O9 O2- 0.0103(7) 0.0053(8) 0.0087(8) -0.0001(6) 0.0020(6) 0.0001(6)
O10 O2- 0.0068(7) 0.0076(8) 0.0092(8) 0.0005(6) 0.0002(6) -0.0008(6)
O11 O2- 0.0109(7) 0.0063(8) 0.0093(8) -0.0004(6) 0.0012(6) -0.0024(6)
O12 O2- 0.0085(7) 0.0072(8) 0.0091(8) 0.0002(6) 0.0022(6) 0.0007(6)
O13 O2- 0.0089(7) 0.0074(8) 0.0098(8) -0.0001(6) 0.0011(6) 0.0030(6)
O14 O2- 0.0089(7) 0.0064(8) 0.0103(8) -0.0012(6) -0.0007(6) 0.0010(6)
O15 O2- 0.0141(8) 0.0179(9) 0.0104(8) 0.0011(7) 0.0018(6) -0.0027(7)
O16 O2- 0.0122(8) 0.0175(9) 0.0135(8) 0.0047(7) 0.0036(6) -0.0012(7)
O17 O2- 0.0134(8) 0.0112(9) 0.0158(9) 0.0024(7) 0.0015(7) 0.0003(7)
O18 O2- 0.0136(8) 0.0174(9) 0.0141(8) 0.0037(7) 0.0026(7) 0.0008(7)
O19 O2- 0.0120(8) 0.0138(9) 0.0124(8) 0.0010(7) 0.0020(6) 0.0028(7)
O20 O2- 0.0167(8) 0.0159(9) 0.0106(8) 0.0002(7) 0.0010(7) 0.0017(7)
O21 O2- 0.0130(8) 0.0190(9) 0.0154(9) 0.0028(7) 0.0029(7) -0.0016(7)
C1 C4+ 0.0052(13) 0.0094(15) 0.0081(14) 0.000 0.0018(11) 0.000
C2 C4+ 0.0057(13) 0.0111(15) 0.0061(14) 0.000 0.0005(11) 0.000
#End of data_249107-ICSD


