data_39383-ICSD
#?2014 by Fachinformationszentrum Karlsruhe, and the U.S. Secretary of 
#Commerce on behalf of the United States.  All rights reserved.
_database_code_ICSD                39383
_audit_creation_date               1991/07/10
_chemical_name_systematic          'Sodium Biuretooxophosphate'
_chemical_formula_structural       'Na (P O2 (N H)3 (C O)2)'
_chemical_formula_sum              'C2 H3 N3 Na1 O4 P1'
_publ_section_title
;
The structure of sodium and yttrium biureto(oxo,thio) phosphates
;
loop_
_citation_id
_citation_journal_abbrev
_citation_year
_citation_journal_volume
_citation_page_first
_citation_page_last
_citation_journal_id_ASTM
primary 'Izvestiya Akademii Nauk SSSR, Neorganicheskie Materialy'
 1991 27 340 346 IVNMAW
_publ_author_name
;
Palkina, K.K.;Maksimova, S.I.;Chibiskova, N.T.;Neels, E.;Valis, B.
;
_cell_length_a                     6.909(1)
_cell_length_b                     12.314(2)
_cell_length_c                     6.989(1)
_cell_angle_alpha                  90.
_cell_angle_beta                   105.41(1)
_cell_angle_gamma                  90.
_cell_volume                       573.23
_cell_formula_units_Z              4
_symmetry_space_group_name_H-M     'P 1 21/n 1'
_symmetry_Int_Tables_number        14
_refine_ls_R_factor_all            .05
loop_
_symmetry_equiv_pos_site_id
_symmetry_equiv_pos_as_xyz
  1	'-x+.5, y+.5, -z+.5'
  2	'-x, -y, -z'
  3	'x+.5, -y+.5, z+.5'
  4	'x, y, z'
loop_
_atom_type_symbol
_atom_type_oxidation_number
C4+	4
H1+	1
N3-	-3
Na1+	1
O2-	-2
P5+	5
loop_
_atom_site_label
_atom_site_type_symbol
_atom_site_symmetry_multiplicity
_atom_site_Wyckoff_symbol
_atom_site_fract_x
_atom_site_fract_y
_atom_site_fract_z
_atom_site_occupancy
_atom_site_attached_hydrogens
_atom_site_B_iso_or_equiv
Na1 Na1+ 4 e 0.7569(4) 0.4547(2) 0.0990(4) 1. 0 1.6(2) 
P1 P5+ 4 e 0.2970(3) 0.0777(1) 0.1076(3) 1. 0 1.2(3) 
O1 O2- 4 e 0.3964(7) 0.0282(3) 0.3042(6) 1. 0 1.6(3) 
O2 O2- 4 e 0.7345(7) -.0060(3) 0.0697(7) 1. 0 1.8(3) 
N1 N3- 4 e 0.4207(8) 0.1932(4) 0.0764(8) 1. 0 1.6(3) 
N2 N3- 4 e 0.0725(8) 0.1299(4) 0.1128(8) 1. 0 1.5(3) 
N3 N3- 4 e 0.1620(8) 0.3118(5) 0.1078(9) 1. 0 2.4(2) 
C1 C4+ 4 e 0.350(1) 0.2976(6) 0.0730(9) 1. 0 1.4(3) 
C2 C4+ 4 e 0.0206(10) 0.2350(6) 0.1124(10) 1. 0 1.6(2) 
O3 O2- 4 e 0.4421(7) 0.3776(4) 0.0434(7) 1. 0 1.6(2) 
O4 O2- 4 e 0.8511(7) 0.2650(4) 0.1168(7) 1. 0 2.3(3) 
H1 H1+ 4 e 0.45 0.2 0.18 1. 0 0 
H2 H1+ 4 e 0.95 0.09 0.14 1. 0 0 
H3 H1+ 4 e 0.13 0.3 0 1. 0 0 

#End of data_39383-ICSD


