data_170007-ICSD
#?2014 by Fachinformationszentrum Karlsruhe, and the U.S. Secretary of 
#Commerce on behalf of the United States.  All rights reserved.
_database_code_ICSD                170007
_audit_creation_date               2005/10/01
_audit_update_record               2006/10/01
_chemical_name_systematic
;
Tetrakis(tetramethylammonium) Bis(tetraaqualithium) Decavandadate 
Tetrahydrate
;
_chemical_formula_structural
;
(N (C H3)4)4 (Li (H2 O)4)2 (V10 O28) (H2 O)4
;
_chemical_formula_sum              'C16 H72 Li2 N4 O40 V10'
_publ_section_title
;
A new decavanadate with mixed cations, (Li (H2 O)4)2 (N (C H3)4)4 
(V10 O28) . 4(H2 O)
;
loop_
_citation_id
_citation_journal_abbrev
_citation_year
_citation_journal_volume
_citation_page_first
_citation_page_last
_citation_journal_id_ASTM
primary 'Acta Crystallographica, Section C: Crystal Structure Communications'
 1997 53 170 171 ACSCEE
_publ_author_name
;
Zavalij, P.Y.;Chirayil, T.;Whittingham, M.S.;Pecharskii, 
V.K.;Jacobson, R.A.
;
_cell_length_a                     11.1870(10)
_cell_length_b                     11.2840(10)
_cell_length_c                     11.5771(8)
_cell_angle_alpha                  103.991(7)
_cell_angle_beta                   99.233(9)
_cell_angle_gamma                  106.523(8)
_cell_volume                       1317.6
_cell_formula_units_Z              1
_symmetry_space_group_name_H-M     'P -1'
_symmetry_Int_Tables_number        2
_refine_ls_R_factor_all            .052
loop_
_symmetry_equiv_pos_site_id
_symmetry_equiv_pos_as_xyz
  1	'-x, -y, -z'
  2	'x, y, z'
loop_
_atom_type_symbol
_atom_type_oxidation_number
C4+	4
H1-	-1
H1+	1
Li1+	1
N3-	-3
O2-	-2
V5+	5
loop_
_atom_site_label
_atom_site_type_symbol
_atom_site_symmetry_multiplicity
_atom_site_Wyckoff_symbol
_atom_site_fract_x
_atom_site_fract_y
_atom_site_fract_z
_atom_site_occupancy
_atom_site_attached_hydrogens
_atom_site_U_iso_or_equiv
V1 V5+ 2 i .46120(6) .49587(5) .25993(5) 1. 0 .0238(2) 
V2 V5+ 2 i .38679(6) .25890(5) .51662(5) 1. 0 .0236(2) 
V3 V5+ 2 i .47658(6) .22843(5) .27445(5) 1. 0 .0258(2) 
V4 V5+ 2 i .22629(6) .28557(5) .28492(5) 1. 0 .0266(2) 
V5 V5+ 2 i .63252(5) .46621(5) .49777(5) 1. 0 .0221(2) 
O1 O2- 2 i .4940(3) .5817(2) .1687(2) 1. 0 .0356(10) 
O2 O2- 2 i .3556(3) .1747(2) .6083(2) 1. 0 .0346(10) 
O3 O2- 2 i .5160(3) .1176(2) .1908(2) 1. 0 .0384(10) 
O4 O2- 2 i .0792(3) .2243(3) .2096(2) 1. 0 .0416(10) 
O5 O2- 2 i .5105(2) .3568(2) .1980(2) 1. 0 .0276(8) 
O6 O2- 2 i .2931(2) .4103(2) .2047(2) 1. 0 .0288(8) 
O7 O2- 2 i .4424(2) .1627(2) .4053(2) 1. 0 .0266(8) 
O8 O2- 2 i .2260(2) .2168(2) .4148(2) 1. 0 .0276(8) 
O9 O2- 2 i .3030(2) .1796(2) .2086(2) 1. 0 .0283(8) 
O10 O2- 2 i .6485(2) .3395(2) .3955(2) 1. 0 .0281(8) 
O11 O2- 2 i .2205(2) .4474(2) .4116(2) 1. 0 .0286(9) 
O12 O2- 2 i .6343(2) .5747(2) .3874(2) 1. 0 .0241(8) 
O13 O2- 2 i .4352(2) .6250(2) .3960(2) 1. 0 .0236(8) 
O14 O2- 2 i .4343(2) .3963(2) .4051(2) 1. 0 .0224(7) 
N1 N3- 2 i .7562(3) .1848(3) .6991(3) 1. 0 .0325(11) 
C1 C4+ 2 i .7088(5) .1354(4) .5630(4) 1. 0 .049(2) 
C2 C4+ 2 i .6430(5) .1630(4) .7537(4) 1. 0 .051(2) 
C3 C4+ 2 i .8374(6) .1124(5) .7419(5) 1. 0 .050(2) 
C4 C4+ 2 i .8312(5) .3262(4) .7376(6) 1. 0 .053(2) 
H1 H1- 2 i .657(5) .045(4) .542(4) 1. 0 .053(13) 
H2 H1- 2 i .779(4) .142(4) .523(4) 1. 0 .050(13) 
H3 H1- 2 i .666(5) .185(4) .549(4) 1. 0 .057(14) 
H4 H1- 2 i .677(4) .198(4) .837(4) 1. 0 .035(11) 
H5 H1- 2 i .584(5) .072(5) .718(5) 1. 0 .077(17) 
H6 H1- 2 i .604(6) .204(5) .728(5) 1. 0 .083(18) 
H7 H1- 2 i .783(4) .021(4) .721(4) 1. 0 .045(12) 
H8 H1- 2 i .871(4) .150(4) .825(4) 1. 0 .039(12) 
H9 H1- 2 i .896(5) .129(5) .712(5) 1. 0 .057(17) 
H10 H1- 2 i .873(6) .354(5) .815(5) 1. 0 .065(17) 
H11 H1- 2 i .921(6) .338(5) .717(5) 1. 0 .072(17) 
H12 H1- 2 i .777(4) .374(4) .720(4) 1. 0 .044(12) 
N2 N3- 2 i .7601(3) -.0367(3) .1284(3) 1. 0 .0422(13) 
C5 C4+ 2 i .7536(5) .0531(5) .0544(4) 1. 0 .057(2) 
C6 C4+ 2 i .6314(5) -.1386(5) .0962(5) 1. 0 .065(2) 
C7 C4+ 2 i .7932(7) .0392(7) .2609(4) 1. 0 .069(2) 
C8 C4+ 2 i .8597(8) -.0922(9) .0997(8) 1. 0 .079(4) 
H13 H1- 2 i .701(7) .093(6) .090(6) 1. 0 .11(2) 
H14 H1- 2 i .738(5) .005(5) -.026(5) 1. 0 .066(15) 
H15 H1- 2 i .836(5) .132(5) .074(5) 1. 0 .072(16) 
H16 H1- 2 i .617(5) -.181(5) .009(5) 1. 0 .074(16) 
H17 H1- 2 i .649(5) -.191(5) .145(5) 1. 0 .073(16) 
H18 H1- 2 i .556(5) -.111(5) .113(5) 1. 0 .071(16) 
H19 H1- 2 i .879(5) .112(5) .270(5) 1. 0 .066(16) 
H20 H1- 2 i .801(6) -.024(5) .302(5) 1. 0 .078(19) 
H21 H1- 2 i .702(7) .073(7) .269(6) 1. 0 .12(3) 
H22 H1- 2 i .938(7) -.022(7) .123(6) 1. 0 .10(3) 
H23 H1- 2 i .833(6) -.148(6) .013(6) 1. 0 .10(2) 
H24 H1- 2 i .856(7) -.141(6) .149(6) 1. 0 .09(3) 
Li1 Li1+ 2 i .177(2) .505(2) .8909(15) 1. 0 .140(10) 
O15 O2- 2 i .1143(4) .3952(4) .9986(3) 1. 0 .080(2) 
H25 H1+ 2 i 0.020 0.376 1.042 1. 0 .10 
H26 H1+ 2 i 0.174 0.414 1.060 1. 0 .10 
O16 O2- 2 i .3466(3) .6195(4) .9673(3) 1. 0 .065(2) 
H27 H1+ 2 i 0.335 0.561 0.985 1. 0 .10 
H28 H1+ 2 i 0.397 0.636 0.897 1. 0 .10 
O17 O2- 2 i .1716(5) .3774(6) .7305(5) 1. 0 .131(3) 
H29 H1+ 2 i 0.118 0.334 0.664 1. 0 .10 
H30 H1+ 2 i 0.180 0.309 0.769 1. 0 .10 
O18 O2- 2 i .0814(7) .6110(6) .8844(9) 1. 0 .178(5) 
H31 H1+ 2 i 0.133 0.683 0.945 1. 0 .10 
H32 H1+ 2 i 0.075 0.599 0.806 1. 0 .10 
O19 O2- 2 i .9742(5) .8381(10) .4793(5) 1. 0 .246(6) 
H33 H1+ 2 i 0.953 0.928 0.514 1. 0 .10 
H34 H1+ 2 i 0.962 0.748 0.490 1. 0 .10 
O20 O2- 2 i .0885(7) .6123(7) .6226(9) 1. 0 .209(6) 
H35 H1+ 2 i 0.047 0.535 0.631 1. 0 .10 
H36 H1+ 2 i 0.061 0.620 0.559 1. 0 .10 

loop_
_atom_site_aniso_label
_atom_site_aniso_type_symbol
_atom_site_aniso_U_11
_atom_site_aniso_U_22
_atom_site_aniso_U_33
_atom_site_aniso_U_12
_atom_site_aniso_U_13
_atom_site_aniso_U_23
V1 V5+ .0277(3) .0244(3) .0191(2) .0073(2) .0053(2) .0084(2)
V2 V5+ .0274(3) .0211(2) .0228(2) .0062(2) .0075(2) .0087(2)
V3 V5+ .0301(3) .0229(2) .0243(2) .0104(2) .0089(2) .0040(2)
V4 V5+ .0209(3) .0263(3) .0264(3) .0039(2) .0010(2) .0050(2)
V5 V5+ .0214(3) .0222(2) .0228(2) .0070(2) .0072(2) .0065(2)
O1 O2- .046(2) .0357(13) .0270(11) .0101(12) .0099(11) .0158(10)
O2 O2- .043(2) .0296(12) .0318(12) .0071(11) .0106(11) .0164(10)
O3 O2- .049(2) .0309(12) .0369(13) .0193(12) .0146(12) .0036(10)
O4 O2- .0277(14) .0429(15) .0418(15) .0040(12) -.0033(12) .0076(12)
O5 O2- .0348(14) .0252(10) .0220(10) .0083(10) .0109(10) .0054(8)
O6 O2- .0288(13) .0264(11) .0251(11) .0056(10) -.0007(9) .0063(9)
O7 O2- .0322(13) .0217(10) .0262(11) .0098(10) .0072(10) .0071(8)
O8 O2- .0271(13) .0251(11) .0274(11) .0047(9) .0057(10) .0076(9)
O9 O2- .0308(13) .0221(10) .0249(11) .0039(9) .0046(10) .0017(8)
O10 O2- .0296(13) .0264(11) .0296(11) .0120(10) .0088(10) .0065(9)
O11 O2- .0255(13) .0293(11) .0296(11) .0099(10) .0031(10) .0078(9)
O12 O2- .0271(12) .0232(10) .0223(10) .0089(9) .0061(9) .0066(8)
O13 O2- .0274(12) .0214(10) .0217(10) .0080(9) .0041(9) .0075(8)
O14 O2- .0244(12) .0206(10) .0204(10) .0068(9) .0035(9) .0054(8)
N1 N3- .035(2) .0260(13) .040(2) .0141(13) .0089(13) .0112(12)
C1 C4+ .060(3) .049(2) .039(2) .024(2) .008(2) .011(2)
C2 C4+ .051(3) .054(3) .061(3) .027(2) .025(2) .026(2)
C3 C4+ .048(3) .050(3) .061(3) .027(2) .007(3) .026(2)
C4 C4+ .047(3) .029(2) .069(3) .005(2) -.003(3) .011(2)
N2 N3- .038(2) .046(2) .030(2) .002(2) .0072(14) .0052(14)
C5 C4+ .065(3) .054(3) .042(2) .010(2) .013(2) .009(2)
C6 C4+ .057(3) .061(3) .048(3) -.016(3) .004(2) .014(2)
C7 C4+ .068(4) .076(4) .030(2) -.012(3) .004(2) .005(2)
C8 C4+ .067(5) .085(5) .085(5) .038(4) .013(4) .016(4)
Li1 Li1+ .111(13) .180(17) .109(11) .029(12) -.002(9) .051(11)
O15 O2- .065(3) .111(3) .056(2) .033(2) -.008(2) .022(2)
O16 O2- .045(2) .114(3) .050(2) .029(2) .022(2) .039(2)
O17 O2- .089(4) .160(5) .097(4) -.006(3) .055(3) -.008(3)
O18 O2- .123(5) .136(5) .356(11) .066(4) .123(6) .151(6)
#End of data_170007-ICSD


