data_249031-ICSD
#?2014 by Fachinformationszentrum Karlsruhe, and the U.S. Secretary of 
#Commerce on behalf of the United States.  All rights reserved.
_database_code_ICSD                249031
_audit_creation_date               2007/08/01
_chemical_name_systematic
;
Potassium Catena-bis(mue-oxalato)-(mue-hydroxo)-dioxo-uranium(VI) 
Dihydrate
;
_chemical_formula_structural       'K ((U O2)2 (C2 O4)2 (O H)) (H2 O)2'
_chemical_formula_sum              'C4 H5 K1 O15 U2'
_publ_section_title
;
A series of shett-structured alkali metal uranyl oxalate hydrates: 
structures and IR spectra
;
loop_
_citation_id
_citation_journal_abbrev
_citation_year
_citation_journal_volume
_citation_journal_issue
_citation_page_first
_citation_page_last
_citation_journal_id_ASTM
primary 'Zeitschrift fuer Kristallographie (1979-2010)' 2006 221 8 589 599 ZEKRDZ
_publ_author_name
;
Giesting, P.A.;Porter, N.J.;Burns, P.C.
;
_cell_length_a                     5.6427(4)
_cell_length_b                     13.7123(9)
_cell_length_c                     9.2669(6)
_cell_angle_alpha                  90.00
_cell_angle_beta                   98.7490(10)
_cell_angle_gamma                  90.00
_cell_volume                       708.68
_cell_formula_units_Z              2
_symmetry_space_group_name_H-M     'P 1 21/m 1'
_symmetry_Int_Tables_number        11
_refine_ls_R_factor_all            .0206
loop_
_symmetry_equiv_pos_site_id
_symmetry_equiv_pos_as_xyz
  1	'x, -y+.5, z'
  2	'-x, -y, -z'
  3	'-x, y+.5, -z'
  4	'x, y, z'
loop_
_atom_type_symbol
_atom_type_oxidation_number
C3+	3
H1+	1
K1+	1
O2-	-2
U6+	6
loop_
_atom_site_label
_atom_site_type_symbol
_atom_site_symmetry_multiplicity
_atom_site_Wyckoff_symbol
_atom_site_fract_x
_atom_site_fract_y
_atom_site_fract_z
_atom_site_occupancy
_atom_site_attached_hydrogens
_atom_site_U_iso_or_equiv
U1 U6+ 4 f 0.2865(1) 0.4083(1) 0.7647(1) 1 0 0.01053(8) 
K1 K1+ 2 e -0.1973(3) 0.2500 0.4070(2) 1 0 0.0259(4) 
O1 O2- 4 f 0.5581(6) 0.4435(3) 0.8726(3) 1 0 0.0138(6) 
O2 O2- 4 f 0.0216(6) 0.3695(3) 0.6527(4) 1 0 0.0177(7) 
O3 O2- 4 f 0.4928(6) 0.3797(2) 0.5588(3) 1 0 0.0141(7) 
O4 O2- 4 f 0.3332(6) 0.5552(2) 0.6199(4) 1 0 0.0190(7) 
O5 O2- 4 f 0.1157(6) 0.3833(2) 0.9885(4) 1 0 0.0149(7) 
O6 O2- 4 f 0.0717(6) 0.5503(2) 0.8397(3) 1 0 0.0167(7) 
O7 O2- 2 e 0.3882(8) 0.2500 0.8220(5) 1 0 0.0133(9) 
O8 O2- 2 e -0.2945(11) 0.2500 0.0790(6) 1 0 0.0305(14) 
O9 O2- 2 e 0.2521(12) 0.2500 0.2694(7) 1 0 0.0391(17) 
C1 C3+ 4 f 0.4548(8) 0.5509(3) 0.5177(5) 1 0 0.0155(9) 
C2 C3+ 4 f -0.0125(8) 0.5480(3) 0.9569(5) 1 0 0.0131(9) 
H1 H1+ 2 e 0.5130(120) 0.2500 0.9060(70) 1 0 0.050 
H2 H1+ 4 f -0.2070(110) 0.3080(30) 0.0650(70) 1 0 0.050 
H3 H1+ 4 f 0.2540(120) 0.3010(40) 0.2000(60) 1 0 0.050 

loop_
_atom_site_aniso_label
_atom_site_aniso_type_symbol
_atom_site_aniso_U_11
_atom_site_aniso_U_22
_atom_site_aniso_U_33
_atom_site_aniso_U_12
_atom_site_aniso_U_13
_atom_site_aniso_U_23
U1 U6+ 0.01137(13) 0.01002(12) 0.01065(11) 0.00016(6) 0.00311(8) 
-0.00029(5)
K1 K1+ 0.0357(10) 0.0148(8) 0.0265(8) 0.000 0.0028(7) 0.000
O1 O2- 0.0129(17) 0.0166(16) 0.0123(15) -0.0025(14) 0.0030(12) -0.0043(14)
O2 O2- 0.0160(19) 0.0172(17) 0.0201(17) -0.0009(15) 0.0037(14) -0.0020(15)
O3 O2- 0.0193(19) 0.0113(15) 0.0130(16) 0.0006(14) 0.0068(14) 0.0015(13)
O4 O2- 0.025(2) 0.0149(17) 0.0187(16) 0.0017(16) 0.0094(15) 0.0028(15)
O5 O2- 0.0157(19) 0.0116(15) 0.0184(18) 0.0017(14) 0.0058(15) -0.0004(13)
O6 O2- 0.0211(19) 0.0149(17) 0.0166(16) 0.0032(15) 0.0104(14) 0.0041(14)
O7 O2- 0.013(2) 0.015(2) 0.011(2) 0.000 -0.0006(18) 0.000
O8 O2- 0.032(3) 0.020(3) 0.036(3) 0.000 -0.007(3) 0.000
O9 O2- 0.043(4) 0.033(4) 0.037(4) 0.000 -0.007(3) 0.000
C1 C3+ 0.013(2) 0.016(2) 0.016(2) 0.002(2) -0.0014(18) -0.0014(19)
C2 C3+ 0.012(2) 0.011(2) 0.016(2) 0.0019(18) 0.0021(17) -0.0022(18)
#End of data_249031-ICSD


