data_152128-ICSD
#?2014 by Fachinformationszentrum Karlsruhe, and the U.S. Secretary of 
#Commerce on behalf of the United States.  All rights reserved.
_database_code_ICSD                152128
_audit_creation_date               2006/10/01
_audit_update_record               2013/08/01
_chemical_name_systematic
;
Sodium Trifluoromethanesulfonate - Trifluoromethanesulfonic Acid 
(1/3)
;
_chemical_formula_structural       '(Na S O3 C F3) (H S O3 C F3)3'
_chemical_formula_sum              'C4 H3 F12 Na1 O12 S4'
_publ_section_title
;
Untersuchungen an Natriumtrifluormethylsulfonat. Kristallstruktur von 
Natriumtrifluormethylsulfonat-Trifluormethylsulfonsaeure (1/3)
;
loop_
_citation_id
_citation_journal_abbrev
_citation_year
_citation_journal_volume
_citation_page_first
_citation_page_last
_citation_journal_id_ASTM
primary 'Zeitschrift fuer Naturforschung, B: Chemical Sciences'
 1998 53 438 442 ZNBSEN
_publ_author_name                  'Korus, G.;Jansen, M.'
_cell_length_a                     16.210(1)
_cell_length_b                     16.210(1)
_cell_length_c                     16.210(1)
_cell_angle_alpha                  90.
_cell_angle_beta                   90.
_cell_angle_gamma                  90.
_cell_volume                       4259.41
_cell_formula_units_Z              8
_symmetry_space_group_name_H-M     'I 21 3'
_symmetry_Int_Tables_number        199
_refine_ls_R_factor_all            .051
loop_
_symmetry_equiv_pos_site_id
_symmetry_equiv_pos_as_xyz
  1	'-z+.5, -x, y+.5'
  2	'-y+.5, -z, x+.5'
  3	'-x+.5, -y, z+.5'
  4	'-z, x+.5, -y+.5'
  5	'-y, z+.5, -x+.5'
  6	'-x, y+.5, -z+.5'
  7	'z+.5, -x+.5, -y'
  8	'y+.5, -z+.5, -x'
  9	'x+.5, -y+.5, -z'
 10	'z, x, y'
 11	'y, z, x'
 12	'x, y, z'
 13	'-z, -x+.5, y'
 14	'-y, -z+.5, x'
 15	'-x, -y+.5, z'
 16	'-z+.5, x, -y'
 17	'-y+.5, z, -x'
 18	'-x+.5, y, -z'
 19	'z, -x, -y+.5'
 20	'y, -z, -x+.5'
 21	'x, -y, -z+.5'
 22	'z+.5, x+.5, y+.5'
 23	'y+.5, z+.5, x+.5'
 24	'x+.5, y+.5, z+.5'
loop_
_atom_type_symbol
_atom_type_oxidation_number
C4+	4
F1-	-1
H1+	1
Na1+	1
O2-	-2
S4+	4
loop_
_atom_site_label
_atom_site_type_symbol
_atom_site_symmetry_multiplicity
_atom_site_Wyckoff_symbol
_atom_site_fract_x
_atom_site_fract_y
_atom_site_fract_z
_atom_site_occupancy
_atom_site_attached_hydrogens
_atom_site_U_iso_or_equiv
Na1 Na1+ 8 a 0.8867(1) 0.8867(1) 0.8867(1) 1. 0 0.046(1) 
S1 S4+ 24 c 0.9116(1) 0.8910(1) 0.6595(1) 1. 0 0.057(1) 
C1 C4+ 24 c 0.8366(4) 0.8279(4) 0.6050(4) 1. 0 0.094(2) 
O1 O2- 24 c 0.9059(3) 0.9698(2) 0.6253(3) 1. 0 0.099(1) 
O2 O2- 24 c 0.9912(2) 0.8486(3) 0.6341(3) 1. 0 0.086(1) 
O3 O2- 24 c 0.8981(3) 0.8779(3) 0.7434(2) 1. 0 0.109(2) 
F1 F1- 24 c 0.8390(4) 0.7529(3) 0.6327(4) 1. 0 0.171(2) 
F2 F1- 24 c 0.8501(4) 0.8269(4) 0.5290(3) 1. 0 0.182(3) 
F3 F1- 24 c 0.7631(2) 0.8580(4) 0.6186(4) 1. 0 0.158(2) 
H1 H1+ 24 c 0.0090(88) 0.8587(2) 0.5796(40) 1. 0 0.249(60) 
S2 S4+ 8 a 0.0625(1) 0.9375(1) 0.4375(1) 1. 0 0.081(1) 
C2 C4+ 8 a 0.1265(3) 0.8735(3) 0.3735(3) 1. 0 0.132(5) 
O4 O2- 24 c 0.9810(3) 0.9241(4) 0.4067(4) 1. 0 0.131(2) 
F4 F1- 24 c 0.1239(6) 0.8950(5) 0.3011(3) 1. 0 0.217(4) 

loop_
_atom_site_aniso_label
_atom_site_aniso_type_symbol
_atom_site_aniso_U_11
_atom_site_aniso_U_22
_atom_site_aniso_U_33
_atom_site_aniso_U_12
_atom_site_aniso_U_13
_atom_site_aniso_U_23
Na1 Na1+ 0.046(1) 0.046(1) 0.046(1) 0.000(1) 0.000(1) 0.000(1)
S1 S4+ 0.078(1) 0.049(1) 0.045(1) 0.001(1) 0.002(1) -0.002(1)
C1 C4+ 0.087(3) 0.107(4) 0.087(3) -0.011(3) -0.002(3) -0.016(3)
O1 O2- 0.134(3) 0.048(1) 0.114(3) 0.013(2) 0.029(2) 0.013(2)
O2 O2- 0.076(2) 0.085(2) 0.098(2) 0.020(2) 0.009(2) 0.020(2)
O3 O2- 0.148(4) 0.133(4) 0.044(1) -0.023(3) 0.007(2) -0.007(2)
F1 F1- 0.165(4) 0.084(2) 0.264(6) -0.051(3) -0.010(5) -0.021(3)
F2 F1- 0.173(5) 0.276(8) 0.097(3) -0.048(5) -0.027(3) -0.072(4)
F3 F1- 0.074(2) 0.214(6) 0.187(5) 0.002(3) -0.015(3) -0.012(4)
S2 S4+ 0.081(1) 0.081(1) 0.081(1) 0.017(1) 0.017(1) -0.017(1)
C2 C4+ 0.132(5) 0.132(5) 0.132(5) 0.045(4) 0.045(4) -0.045(4)
O4 O2- 0.098(3) 0.131(4) 0.164(5) 0.037(3) -0.009(3) -0.020(4)
F4 F1- 0.290(9) 0.260(9) 0.102(3) 0.061(7) 0.075(5) -0.037(4)
#End of data_152128-ICSD


