data_261325-ICSD
#?2014 by Fachinformationszentrum Karlsruhe, and the U.S. Secretary of 
#Commerce on behalf of the United States.  All rights reserved.
_database_code_ICSD                261325
_audit_creation_date               2011/08/01
_chemical_name_systematic
;
Tetraaqua(2-hydroxyacetato-kappa2 O1, O2) Magnesium Nitrate
;
_chemical_formula_structural       '(Mg (C2 H3 O3) (H2 O)4) (N O3)'
_chemical_formula_sum              'C2 H11 Mg1 N1 O10'
_publ_section_title
;
Tetraaqua(2-hydroxyacetato-kappa2 O1, O2) magnesium nitrate
;
loop_
_citation_id
_citation_journal_abbrev
_citation_year
_citation_journal_volume
_citation_journal_issue
_citation_page_first
_citation_page_last
_citation_journal_id_ASTM
primary 'Acta Crystallographica, Section E. Structure Reports Online'
 2011 67 3 i24 i24 ACSEBH
_publ_author_name
;
Liu Wenjing;Wei Zhiqiang;Yue Shantang
;
_cell_length_a                     5.777(2)
_cell_length_b                     7.171(3)
_cell_length_c                     23.045(8)
_cell_angle_alpha                  90.00
_cell_angle_beta                   92.839(4)
_cell_angle_gamma                  90.00
_cell_volume                       953.51
_cell_formula_units_Z              4
_symmetry_space_group_name_H-M     'P 1 21/n 1'
_symmetry_Int_Tables_number        14
_refine_ls_R_factor_all            .0437
loop_
_symmetry_equiv_pos_site_id
_symmetry_equiv_pos_as_xyz
  1	'-x+.5, y+.5, -z+.5'
  2	'-x, -y, -z'
  3	'x+.5, -y+.5, z+.5'
  4	'x, y, z'
loop_
_atom_type_symbol
_atom_type_oxidation_number
C3+	3
H1-	-1
H1+	1
Mg2+	2
N5+	5
O2-	-2
loop_
_atom_site_label
_atom_site_type_symbol
_atom_site_symmetry_multiplicity
_atom_site_Wyckoff_symbol
_atom_site_fract_x
_atom_site_fract_y
_atom_site_fract_z
_atom_site_occupancy
_atom_site_attached_hydrogens
_atom_site_U_iso_or_equiv
Mg1 Mg2+ 4 e 0.03285(14) 0.16089(12) 0.12732(3) 1 0 0.0330(3) 
O1 O2- 4 e -0.2625(3) 0.1820(3) 0.17242(7) 1 0 0.0381(5) 
O2 O2- 4 e 0.3575(3) 0.1539(3) 0.09850(8) 1 0 0.0480(5) 
H1 H1+ 4 e 0.4864 0.1697 0.1172 1 0 0.080(13) 
H2 H1+ 4 e 0.3969 0.1891 0.0652 1 0 0.054(9) 
O3 O2- 4 e 0.1570(3) 0.2201(4) 0.21105(8) 1 0 0.0507(6) 
O4 O2- 4 e -0.1370(3) 0.0888(3) 0.05123(8) 1 0 0.0431(5) 
H3 H1+ 4 e -0.1878 0.1479 0.0213 1 0 0.065 
H4 H1+ 4 e -0.1967 -0.0171 0.0433 1 0 0.065 
O5 O2- 4 e 0.0493(4) -0.1211(3) 0.14223(9) 1 0 0.0520(6) 
H5 H1+ 4 e 0.0047 -0.1825 0.1712 1 0 0.078 
H6 H1+ 4 e 0.1424 -0.2007 0.1291 1 0 0.078 
O6 O2- 4 e -0.0052(4) 0.4340(3) 0.10109(10) 1 0 0.0557(6) 
H7 H1+ 4 e 0.0818 0.4998 0.0805 1 0 0.083 
H8 H1+ 4 e -0.1280 0.4991 0.0973 1 0 0.083 
N1 N5+ 4 e 0.4889(4) 0.6773(3) 0.05397(10) 1 0 0.0436(6) 
O7 O2- 4 e 0.2764(4) 0.6940(3) 0.04229(10) 1 0 0.0606(6) 
O8 O2- 4 e 0.6310(4) 0.7402(3) 0.02097(9) 1 0 0.0599(6) 
O9 O2- 4 e 0.5496(4) 0.5979(5) 0.09917(11) 1 0 0.0840(9) 
C1 C3+ 4 e -0.0077(5) 0.2379(5) 0.25407(12) 1 0 0.0396(6) 
C2 C3+ 4 e -0.2471(4) 0.2188(4) 0.22541(11) 1 0 0.0337(6) 
O10 O2- 4 e -0.4157(3) 0.2385(3) 0.25663(8) 1 0 0.0503(6) 
H9 H1- 4 e 0.004(5) 0.352(5) 0.2734(14) 1 0 0.052(9) 
H10 H1+ 4 e 0.294(6) 0.232(4) 0.2291(13) 1 0 0.048(8) 
H11 H1- 4 e 0.019(5) 0.144(5) 0.2852(14) 1 0 0.055(9) 

loop_
_atom_site_aniso_label
_atom_site_aniso_type_symbol
_atom_site_aniso_U_11
_atom_site_aniso_U_22
_atom_site_aniso_U_33
_atom_site_aniso_U_12
_atom_site_aniso_U_13
_atom_site_aniso_U_23
Mg1 Mg2+ 0.0246(4) 0.0441(5) 0.0305(4) -0.0018(4) 0.0053(3) -0.0009(4)
O1 O2- 0.0242(9) 0.0586(12) 0.0315(9) -0.0037(8) 0.0030(7) -0.0057(8)
O2 O2- 0.0260(10) 0.0799(15) 0.0387(11) -0.0066(9) 0.0068(8) 0.0017(10)
O3 O2- 0.0214(10) 0.0941(17) 0.0368(10) -0.0028(10) 0.0024(8) -0.0129(10)
O4 O2- 0.0464(11) 0.0480(11) 0.0342(10) -0.0048(9) -0.0040(8) 0.0008(8)
O5 O2- 0.0674(14) 0.0443(12) 0.0464(11) 0.0072(10) 0.0232(10) 0.0089(9)
O6 O2- 0.0463(12) 0.0447(12) 0.0769(15) -0.0032(10) 0.0127(11) 0.0100(11)
N1 N5+ 0.0465(15) 0.0436(14) 0.0411(13) -0.0027(11) 0.0062(11) 0.0033(10)
O7 O2- 0.0674(14) 0.0443(12) 0.0464(11) 0.0072(10) 0.0232(10) 0.0089(9)
O8 O2- 0.0554(13) 0.0775(16) 0.0478(12) -0.0177(12) 0.0120(10) 0.0040(11)
O9 O2- 0.0578(16) 0.131(2) 0.0627(16) 0.0079(16) 0.0018(12) 0.0440(16)
C1 C3+ 0.0284(14) 0.0565(18) 0.0343(14) -0.0019(13) 0.0048(11) -0.0107(14)
C2 C3+ 0.0268(13) 0.0393(14) 0.0353(13) -0.0008(11) 0.0052(10) -0.0053(11)
O10 O2- 0.0260(10) 0.0799(15) 0.0387(11) -0.0066(9) 0.0068(8) 0.0017(10)
#End of data_261325-ICSD


