data_173776-ICSD
#?2014 by Fachinformationszentrum Karlsruhe, and the U.S. Secretary of 
#Commerce on behalf of the United States.  All rights reserved.
_database_code_ICSD                173776
_audit_creation_date               2009/08/01
_chemical_name_systematic
;
Bis(potassium Tetrakis(methanol)) Dodecakis-methanolato- Hexa-
methanolato-octahedro-hexaniobate
;
_chemical_formula_structural       '(K (C H3 O H)4)2 (Nb6 (O C H3)18)'
_chemical_formula_sum              'C26 H86 K2 Nb6 O26'
_publ_section_title
;
Niobium alcoholate clusters with an octahedral arrangement of metal 
atoms: [K (C H3 O H)4]2 [Nb6 (O C H3)18] and [Na ([18]crown-6)-(C2 H5 
O H)2]2 [Nb6 (O C2 H5)12 (N C S)6]
;
loop_
_citation_id
_citation_journal_abbrev
_citation_year
_citation_journal_volume
_citation_journal_issue
_citation_page_first
_citation_page_last
_citation_journal_id_ASTM
primary 'Angewandte Chemie. International Edition' 2009 48 14 2605 2608 ACIEF5
_publ_author_name                  'Flemming, A.;Koeckerling, M.'
_cell_length_a                     26.177(2)
_cell_length_b                     12.1643(8)
_cell_length_c                     19.151(2)
_cell_angle_alpha                  90.00
_cell_angle_beta                   117.315(5)
_cell_angle_gamma                  90.00
_cell_volume                       5418.19
_cell_formula_units_Z              4
_symmetry_space_group_name_H-M     'C 1 2/c 1'
_symmetry_Int_Tables_number        15
_refine_ls_R_factor_all            .0295
loop_
_symmetry_equiv_pos_site_id
_symmetry_equiv_pos_as_xyz
  1	'x, -y, z+.5'
  2	'-x, -y, -z'
  3	'-x, y, -z+.5'
  4	'x, y, z'
  5	'x+.5, -y+.5, z+.5'
  6	'-x+.5, -y+.5, -z'
  7	'-x+.5, y+.5, -z+.5'
  8	'x+.5, y+.5, z'
loop_
_atom_type_symbol
_atom_type_oxidation_number
C4+	4
H1-	-1
H1+	1
K1+	1
Nb2.667+	2.667
O2-	-2
loop_
_atom_site_label
_atom_site_type_symbol
_atom_site_symmetry_multiplicity
_atom_site_Wyckoff_symbol
_atom_site_fract_x
_atom_site_fract_y
_atom_site_fract_z
_atom_site_occupancy
_atom_site_attached_hydrogens
_atom_site_U_iso_or_equiv
Nb1 Nb2.667+ 8 f 0.184652(11) 0.35999(2) 0.450097(15) 1 0 0.02323(8) 
Nb2 Nb2.667+ 8 f 0.193621(11) 0.12390(2) 0.452625(15) 1 0 0.02249(8) 
Nb3 Nb2.667+ 8 f 0.261541(11) 0.25478(2) 0.402095(15) 1 0 0.02229(8) 
O1 O2- 8 f 0.11261(10) 0.46878(19) 0.40136(15) 1 0 0.0469(6) 
C1 C4+ 8 f 0.0958(2) 0.5615(4) 0.3567(3) 1 0 0.0755(15) 
H1 H1- 8 f 0.0575 0.5833 0.3489 1 0 0.113 
H2 H1- 8 f 0.0946 0.5473 0.3056 1 0 0.113 
H3 H1- 8 f 0.1232 0.6208 0.3835 1 0 0.113 
O2 O2- 8 f 0.12956(9) -0.00419(18) 0.40528(13) 1 0 0.0381(5) 
C2 C4+ 8 f 0.1230(2) -0.1002(3) 0.3648(3) 1 0 0.0719(14) 
H4 H1- 8 f 0.0862 -0.1344 0.3545 1 0 0.108 
H5 H1- 8 f 0.1545 -0.1504 0.3962 1 0 0.108 
H6 H1- 8 f 0.1234 -0.0847 0.3149 1 0 0.108 
O3 O2- 8 f 0.27957(10) 0.26198(19) 0.30349(13) 1 0 0.0412(6) 
C3 C4+ 8 f 0.2519(2) 0.2557(3) 0.2233(2) 1 0 0.0597(12) 
H7 H1- 8 f 0.2798 0.2637 0.2029 1 0 0.090 
H8 H1- 8 f 0.2233 0.3147 0.2022 1 0 0.090 
H9 H1- 8 f 0.2326 0.1844 0.2072 1 0 0.090 
O4 O2- 8 f 0.12487(8) 0.23297(16) 0.39987(12) 1 0 0.0276(5) 
C4 C4+ 8 f 0.07637(15) 0.2282(3) 0.3243(2) 1 0 0.0436(9) 
H10 H1- 8 f 0.0891 0.2349 0.2837 1 0 0.065 
H11 H1- 8 f 0.0500 0.2886 0.3189 1 0 0.065 
H12 H1- 8 f 0.0565 0.1578 0.3183 1 0 0.065 
O5 O2- 8 f 0.24087(8) 0.49104(16) 0.49703(12) 1 0 0.0291(5) 
C5 C4+ 8 f 0.23553(18) 0.6069(3) 0.4945(3) 1 0 0.0628(12) 
H13 H1- 8 f 0.2735 0.6401 0.5251 1 0 0.094 
H14 H1- 8 f 0.2101 0.6289 0.5169 1 0 0.094 
H15 H1- 8 f 0.2193 0.6319 0.4399 1 0 0.094 
O6 O2- 8 f 0.19535(9) 0.36738(16) 0.34934(12) 1 0 0.0286(5) 
C6 C4+ 8 f 0.17171(18) 0.4266(4) 0.2781(2) 1 0 0.0616(12) 
H16 H1- 8 f 0.1902 0.4034 0.2462 1 0 0.092 
H17 H1- 8 f 0.1782 0.5054 0.2893 1 0 0.092 
H18 H1- 8 f 0.1303 0.4122 0.2494 1 0 0.092 
O7 O2- 8 f 0.20403(9) 0.12638(16) 0.35191(12) 1 0 0.0285(5) 
C7 C4+ 8 f 0.18066(19) 0.0703(4) 0.2792(2) 1 0 0.0629(13) 
H19 H1- 8 f 0.1545 0.0125 0.2791 1 0 0.094 
H20 H1- 8 f 0.2118 0.0370 0.2715 1 0 0.094 
H21 H1- 8 f 0.1594 0.1223 0.2365 1 0 0.094 
O8 O2- 8 f 0.18001(8) 0.11515(16) 0.55171(12) 1 0 0.0260(4) 
C8 C4+ 8 f 0.17355(14) 0.0206(3) 0.5910(2) 1 0 0.0377(8) 
H22 H1- 8 f 0.2092 -0.0223 0.6128 1 0 0.057 
H23 H1- 8 f 0.1419 -0.0248 0.5536 1 0 0.057 
H24 H1- 8 f 0.1651 0.0438 0.6336 1 0 0.057 
O9 O2- 8 f 0.32871(8) 0.14218(16) 0.45046(12) 1 0 0.0271(5) 
C9 C4+ 8 f 0.34303(16) 0.0541(3) 0.4133(2) 1 0 0.0454(9) 
H25 H1- 8 f 0.3772 0.0160 0.4522 1 0 0.068 
H26 H1- 8 f 0.3509 0.0836 0.3715 1 0 0.068 
H27 H1- 8 f 0.3108 0.0024 0.3906 1 0 0.068 
K1 K1+ 8 f 0.06695(3) 0.21059(7) 0.49956(5) 1 0 0.0442(2) 
O10 O2- 8 f 0.04322(11) 0.0059(2) 0.43281(16) 1 0 0.0495(7) 
H28 H1+ 8 f 0.071(2) -0.008(4) 0.420(3) 1 0 0.085(17) 
C10 C4+ 8 f -0.00899(16) 0.0037(4) 0.3624(3) 1 0 0.0700(14) 
H29 H1- 8 f -0.0157 -0.0707 0.3403 1 0 0.105 
H30 H1- 8 f -0.0068 0.0554 0.3246 1 0 0.105 
H31 H1- 8 f -0.0407 0.0249 0.3735 1 0 0.105 
O11 O2- 8 f 0.11185(14) 0.2022(3) 0.65536(19) 1 0 0.0629(8) 
H32 H1+ 8 f 0.145(2) 0.228(4) 0.667(3) 1 0 0.079(17) 
C11 C4+ 8 f 0.0915(2) 0.2725(4) 0.6941(3) 1 0 0.0678(13) 
H33 H1- 8 f 0.1127 0.2597 0.7508 1 0 0.102 
H34 H1- 8 f 0.0505 0.2585 0.6762 1 0 0.102 
H35 H1- 8 f 0.0969 0.3489 0.6825 1 0 0.102 
O12 O2- 8 f -0.03883(14) 0.1805(3) 0.4889(2) 1 0 0.0824(12) 
H36 H1+ 8 f -0.040(2) 0.127(4) 0.509(3) 1 0 0.09(2) 
C12 C4+ 8 f -0.0841(3) 0.2469(4) 0.4708(5) 1 0 0.116(3) 
H37 H1- 8 f -0.1153 0.2054 0.4735 1 0 0.173 
H38 H1- 8 f -0.0974 0.2757 0.4174 1 0 0.173 
H39 H1- 8 f -0.0728 0.3082 0.5081 1 0 0.173 
O13 O2- 8 f 0.02931(13) 0.3982(3) 0.4263(2) 1 0 0.0767(10) 
H40 H1+ 8 f 0.0590(19) 0.432(4) 0.414(2) 1 0 0.076(14) 
C13 C4+ 8 f -0.0166(2) 0.4581(7) 0.3911(4) 1 0 0.159(4) 
H41 H1- 8 f -0.0071 0.5264 0.3726 1 0 0.239 
H42 H1- 8 f -0.0319 0.4755 0.4279 1 0 0.239 
H43 H1- 8 f -0.0456 0.4175 0.3462 1 0 0.239 

loop_
_atom_site_aniso_label
_atom_site_aniso_type_symbol
_atom_site_aniso_U_11
_atom_site_aniso_U_22
_atom_site_aniso_U_33
_atom_site_aniso_U_12
_atom_site_aniso_U_13
_atom_site_aniso_U_23
Nb1 Nb2.667+ 0.02609(14) 0.02027(14) 0.02201(16) 0.00165(10) 0.00990(11) 
0.00259(10)
Nb2 Nb2.667+ 0.02657(14) 0.01955(13) 0.02018(15) -0.00352(10) 0.00974(11) 
-0.00187(10)
Nb3 Nb2.667+ 0.02682(14) 0.02174(14) 0.01783(14) -0.00199(10) 0.00982(11) 
-0.00054(10)
O1 O2- 0.0422(13) 0.0391(14) 0.0606(17) 0.0148(11) 0.0246(13) 0.0198(12)
C1 C4+ 0.080(3) 0.069(3) 0.084(4) 0.035(3) 0.043(3) 0.038(3)
O2 O2- 0.0398(12) 0.0316(12) 0.0439(14) -0.0152(10) 0.0200(11) -0.0114(10)
C2 C4+ 0.082(3) 0.054(3) 0.093(4) -0.029(2) 0.052(3) -0.034(3)
O3 O2- 0.0436(14) 0.0575(16) 0.0254(12) -0.0068(11) 0.0183(11) -0.0022(11)
C3 C4+ 0.071(3) 0.079(3) 0.034(2) -0.011(2) 0.028(2) -0.003(2)
O4 O2- 0.0242(10) 0.0316(11) 0.0216(11) -0.0016(8) 0.0058(9) 0.0004(9)
C4 C4+ 0.0350(18) 0.052(2) 0.0277(18) -0.0044(15) 0.0005(15) 0.0018(16)
O5 O2- 0.0377(11) 0.0162(10) 0.0336(12) -0.0008(8) 0.0166(10) 0.0005(8)
C5 C4+ 0.070(3) 0.0221(18) 0.080(3) 0.0008(18) 0.021(2) -0.0041(19)
O6 O2- 0.0329(11) 0.0303(11) 0.0211(11) 0.0030(9) 0.0109(9) 0.0076(9)
C6 C4+ 0.070(3) 0.077(3) 0.040(2) 0.036(2) 0.027(2) 0.038(2)
O7 O2- 0.0335(11) 0.0296(11) 0.0218(11) -0.0089(9) 0.0122(9) -0.0082(8)
C7 C4+ 0.087(3) 0.071(3) 0.036(2) -0.040(2) 0.033(2) -0.030(2)
O8 O2- 0.0307(10) 0.0230(10) 0.0242(11) -0.0047(8) 0.0126(9) 0.0017(8)
C8 C4+ 0.0461(19) 0.0298(17) 0.038(2) -0.0091(14) 0.0196(16) 0.0064(14)
O9 O2- 0.0323(11) 0.0253(11) 0.0278(12) 0.0024(8) 0.0174(9) -0.0016(8)
C9 C4+ 0.061(2) 0.0357(19) 0.053(2) 0.0091(17) 0.038(2) -0.0075(17)
K1 K1+ 0.0373(4) 0.0479(5) 0.0503(5) 0.0001(3) 0.0226(4) 0.0024(4)
O10 O2- 0.0374(14) 0.0552(17) 0.0520(17) -0.0073(12) 0.0171(13) 0.0010(13)
C10 C4+ 0.044(2) 0.085(3) 0.065(3) -0.016(2) 0.011(2) 0.011(3)
O11 O2- 0.0551(18) 0.083(2) 0.061(2) -0.0174(17) 0.0354(16) -0.0252(17)
C11 C4+ 0.087(3) 0.055(3) 0.085(4) 0.006(2) 0.060(3) 0.000(2)
O12 O2- 0.0519(18) 0.083(3) 0.122(3) 0.0111(18) 0.048(2) 0.043(2)
C12 C4+ 0.088(4) 0.070(4) 0.194(8) 0.009(3) 0.070(5) 0.039(4)
O13 O2- 0.0500(17) 0.075(2) 0.114(3) 0.0217(16) 0.0460(19) 0.037(2)
C13 C4+ 0.055(3) 0.211(8) 0.214(8) 0.050(4) 0.063(4) 0.125(7)
#End of data_173776-ICSD


