data_200006-ICSD
#?2014 by Fachinformationszentrum Karlsruhe, and the U.S. Secretary of 
#Commerce on behalf of the United States.  All rights reserved.
_database_code_ICSD                200006
_audit_creation_date               1980/01/01
_audit_update_record               1997/11/10
_chemical_name_systematic
;
Dipotassium Magnesium Carbonate Tetrahydrate
;
_chemical_formula_structural       'K2 Mg (C O3)2 (H2 O)4'
_chemical_formula_sum              'C2 H8 K2 Mg1 O10'
_chemical_name_mineral             Baylissite
_publ_section_title
;
Crystal structure of baylissite, K2 Mg(C O3)2 (H2 O)4
;
loop_
_citation_id
_citation_journal_abbrev
_citation_year
_citation_journal_volume
_citation_page_first
_citation_page_last
_citation_journal_id_ASTM
primary 'Australian Journal of Chemistry' 1977 30 1379 1382 AJCHAS
_publ_author_name
;
Bucat, R.B.;Patrick, J.M.;White, A.H.;Willis, A.C.
;
_cell_length_a                     11.404(4)
_cell_length_b                     6.228(2)
_cell_length_c                     6.826(2)
_cell_angle_alpha                  90.
_cell_angle_beta                   99.66(2)
_cell_angle_gamma                  90.
_cell_volume                       477.94
_cell_formula_units_Z              2
_symmetry_space_group_name_H-M     'P 1 21/n 1'
_symmetry_Int_Tables_number        14
_refine_ls_R_factor_all            .045
loop_
_symmetry_equiv_pos_site_id
_symmetry_equiv_pos_as_xyz
  1	'-x+.5, y+.5, -z+.5'
  2	'-x, -y, -z'
  3	'x+.5, -y+.5, z+.5'
  4	'x, y, z'
loop_
_atom_type_symbol
_atom_type_oxidation_number
C4+	4
H1+	1
K1+	1
Mg2+	2
O2-	-2
loop_
_atom_site_label
_atom_site_type_symbol
_atom_site_symmetry_multiplicity
_atom_site_Wyckoff_symbol
_atom_site_fract_x
_atom_site_fract_y
_atom_site_fract_z
_atom_site_occupancy
_atom_site_attached_hydrogens
_atom_site_U_iso_or_equiv
K1 K1+ 4 e 0.18426(6) 0.1441(1) 0.4149(1) 1. 0 0 
Mg1 Mg2+ 2 c 0.5 0 0.5 1. 0 0 
C1 C4+ 4 e 0.1762(2) 0.1494(5) 0.9210(4) 1. 0 0 
O1 O2- 4 e 0.1464(2) 0.3032(3) 0.0272(3) 1. 0 0 
O2 O2- 4 e 0.2780(2) 0.0585(4) 0.9674(3) 1. 0 0 
O3 O2- 4 e 0.1032(2) 0.0846(4) 0.7657(3) 1. 0 0 
O4 O2- 4 e 0.4428(2) 0.1658(4) 0.7359(4) 1. 0 0 
H1 H1+ 4 e 0.392(4) 0.111(9) 0.777(7) 1. 0 0.052(15) 
H2 H1+ 4 e 0.428(4) 0.303(8) 0.730(6) 1. 0 0.038(12) 
O5 O2- 4 e 0.4068(2) 0.2156(4) 0.2956(3) 1. 0 0 
H3 H1+ 4 e 0.368(3) 0.174(6) 0.186(6) 1. 0 0.0224(95) 
H4 H1+ 4 e 0.466(4) 0.279(8) 0.269(7) 1. 0 0.047(14) 

loop_
_atom_site_aniso_label
_atom_site_aniso_type_symbol
_atom_site_aniso_U_11
_atom_site_aniso_U_22
_atom_site_aniso_U_33
_atom_site_aniso_U_12
_atom_site_aniso_U_13
_atom_site_aniso_U_23
K1 K1+ 0.0282(3) 0.0227(3) 0.0229(3) -.0002(3) 0.0084(2) 0.0004(3)
Mg1 Mg2+ 0.0160(6) 0.0165(6) 0.0163(6) 0.0008(5) 0.0036(5) 0.0023(5)
C1 C4+ 0.0179(11) 0.0176(12) 0.0177(11) -.0023(10) 0.0058(9) 0.0017(11)
O1 O2- 0.0203(9) 0.0189(10) 0.0216(10) 0.0047(8) 0.0037(8) -.0049(8)
O2 O2- 0.0186(9) 0.0228(11) 0.0272(11) 0.0056(8) 0.0056(8) -.0006(9)
O3 O2- 0.0265(10) 0.0229(11) 0.020(1) 0.0012(9) 0.0041(8) -.0045(9)
O4 O2- 0.0350(13) 0.0207(12) 0.0332(13) 0.0008(10) 0.0194(10) 0.0008(10)
O5 O2- 0.0189(10) 0.0229(11) 0.0252(11) -.0011(8) 0.0026(8) 0.0037(9)
#End of data_200006-ICSD


