data_416133-ICSD
#?2014 by Fachinformationszentrum Karlsruhe, and the U.S. Secretary of 
#Commerce on behalf of the United States.  All rights reserved.
_database_code_ICSD                416133
_audit_creation_date               2008/08/01
_audit_update_record               2011/08/01
_chemical_name_systematic
;
Dialuminium Tetraphosphate Tetrakis(methylammonium) Bis(ammonium)
;
_chemical_formula_structural       '(Al2 P4 O16) (C H3 N H3)4 (N H4)2'
_chemical_formula_sum              'C4 H32 Al2 N6 O16 P4'
_publ_section_title
;
Ionothermal materials synthesis using unstable deep-eutectic solvents 
as template-delivery agents
;
loop_
_citation_id
_citation_journal_abbrev
_citation_year
_citation_journal_volume
_citation_journal_issue
_citation_page_first
_citation_page_last
_citation_journal_id_ASTM
primary 'Angewandte Chemie. International Edition' 2006 45 30 4962 4966 ACIEF5
_publ_author_name
;
Parnham, E.R.;Drylie, E.A.;Wheatley, P.S.;Slawin, A.M.Z.;Morris, R.E.
;
_cell_length_a                     8.4710(10)
_cell_length_b                     16.710(2)
_cell_length_c                     17.234(2)
_cell_angle_alpha                  90.00
_cell_angle_beta                   90.00
_cell_angle_gamma                  90.00
_cell_volume                       2439.48
_cell_formula_units_Z              4
_symmetry_space_group_name_H-M     'P 21 21 21'
_symmetry_Int_Tables_number        19
_refine_ls_R_factor_all            .0354
loop_
_symmetry_equiv_pos_site_id
_symmetry_equiv_pos_as_xyz
  1	'-x, y+.5, -z+.5'
  2	'x+.5, -y+.5, -z'
  3	'-x+.5, -y, z+.5'
  4	'x, y, z'
loop_
_atom_type_symbol
_atom_type_oxidation_number
Al3+	3
C4+	4
H1-	-1
H1+	1
N3-	-3
O2-	-2
P5+	5
loop_
_atom_site_label
_atom_site_type_symbol
_atom_site_symmetry_multiplicity
_atom_site_Wyckoff_symbol
_atom_site_fract_x
_atom_site_fract_y
_atom_site_fract_z
_atom_site_occupancy
_atom_site_attached_hydrogens
_atom_site_U_iso_or_equiv
P1 P5+ 4 a 1.1665(2) -0.78614(9) -0.64574(8) 1 0 0.0163(4) 
P2 P5+ 4 a 1.1935(2) -0.53688(9) -0.83008(8) 1 0 0.0167(4) 
P3 P5+ 4 a 0.8324(2) -0.52598(9) -0.63499(8) 1 0 0.0154(4) 
P4 P5+ 4 a 0.79842(19) -0.77452(10) -0.84197(8) 1 0 0.0164(4) 
Al1 Al3+ 4 a 0.9853(2) -0.65437(12) -0.73646(10) 1 0 0.0160(5) 
Al2 Al3+ 4 a 0.9953(2) -0.90302(12) -0.75448(10) 1 0 0.0154(6) 
O1 O2- 4 a 1.0495(5) -0.7181(2) -0.6642(2) 1 0 0.0204(11) 
O2 O2- 4 a 1.1473(5) -0.8488(2) -0.7127(2) 1 0 0.0170(10) 
O3 O2- 4 a 1.3349(5) -0.7565(3) -0.6476(2) 1 0 0.0269(11) 
O4 O2- 4 a 1.1185(5) -0.8221(2) -0.5687(2) 1 0 0.0214(11) 
O5 O2- 4 a 0.8988(5) -0.7031(2) -0.8147(2) 1 0 0.0204(11) 
O6 O2- 4 a 1.1494(5) -0.6033(2) -0.7704(2) 1 0 0.0186(10) 
O7 O2- 4 a 1.0798(5) -0.4663(2) -0.8154(2) 1 0 0.0194(11) 
O8 O2- 4 a 1.3622(5) -0.5135(2) -0.8168(2) 1 0 0.0205(10) 
O9 O2- 4 a 1.1602(5) -0.5665(2) -0.9110(2) 1 0 0.0179(10) 
O10 O2- 4 a 0.8402(5) -0.5914(2) -0.6989(2) 1 0 0.0190(10) 
O11 O2- 4 a 0.9261(5) -0.4526(2) -0.6671(2) 1 0 0.0195(11) 
O12 O2- 4 a 0.9127(4) -0.5542(2) -0.5619(2) 1 0 0.0179(10) 
O13 O2- 4 a 0.6620(5) -0.5030(2) -0.6236(2) 1 0 0.0241(10) 
O14 O2- 4 a 0.8401(5) -0.8461(2) -0.7874(2) 1 0 0.0190(10) 
O15 O2- 4 a 0.6260(5) -0.7577(2) -0.8337(2) 1 0 0.0293(12) 
O16 O2- 4 a 0.8475(5) -0.7936(2) -0.9243(2) 1 0 0.0227(11) 
N1 N3- 4 a 0.8332(5) -0.9594(3) -0.9596(2) 1 0 0.0193(12) 
H1 H1+ 4 a 0.8531 -0.9100 -0.9430 1 0 0.023 
H2 H1+ 4 a 0.7981 -0.9576 -1.0082 1 0 0.023 
H3 H1+ 4 a 0.9214 -0.9883 -0.9578 1 0 0.023 
C1 C4+ 4 a 0.7109(7) -0.9970(4) -0.9089(4) 1 0 0.0301(16) 
H4 H1- 4 a 0.7468 -0.9961 -0.8549 1 0 0.045 
H5 H1- 4 a 0.6938 -1.0526 -0.9251 1 0 0.045 
H6 H1- 4 a 0.6118 -0.9672 -0.9134 1 0 0.045 
N2 N3- 4 a 0.8771(6) -0.4836(3) -0.9585(3) 1 0 0.0235(13) 
H7 H1+ 4 a 0.8785 -0.4314 -0.9483 1 0 0.028 
H8 H1+ 4 a 0.8575 -0.4912 -1.0087 1 0 0.028 
H9 H1+ 4 a 0.9703 -0.5049 -0.9465 1 0 0.028 
C2 C4+ 4 a 0.7526(7) -0.5225(4) -0.9119(4) 1 0 0.0319(17) 
H10 H1- 4 a 0.7723 -0.5127 -0.8567 1 0 0.048 
H11 H1- 4 a 0.7533 -0.5802 -0.9218 1 0 0.048 
H12 H1- 4 a 0.6495 -0.5003 -0.9262 1 0 0.048 
N3 N3- 4 a 1.1447(6) -0.7271(3) -0.9504(3) 1 0 0.0239(13) 
H13 H1+ 4 a 1.1438 -0.6765 -0.9343 1 0 0.029 
H14 H1+ 4 a 1.0479 -0.7474 -0.9469 1 0 0.029 
H15 H1+ 4 a 1.1768 -0.7290 -0.9996 1 0 0.029 
C3 C4+ 4 a 1.2550(8) -0.7749(4) -0.9010(4) 1 0 0.038(2) 
H16 H1- 4 a 1.2572 -0.8304 -0.9193 1 0 0.057 
H17 H1- 4 a 1.2188 -0.7735 -0.8470 1 0 0.057 
H18 H1- 4 a 1.3614 -0.7520 -0.9042 1 0 0.057 
N4 N3- 4 a 1.0057(5) -0.6951(3) -0.4807(3) 1 0 0.0205(12) 
H19 H1+ 4 a 1.0275 -0.7351 -0.5130 1 0 0.025 
H20 H1+ 4 a 0.9629 -0.6547 -0.5071 1 0 0.025 
H21 H1+ 4 a 0.9382 -0.7118 -0.4446 1 0 0.025 
C4 C4+ 4 a 1.1543(8) -0.6673(4) -0.4426(4) 1 0 0.0364(18) 
H22 H1- 4 a 1.1350 -0.6162 -0.4163 1 0 0.055 
H23 H1- 4 a 1.2366 -0.6601 -0.4820 1 0 0.055 
H24 H1- 4 a 1.1889 -0.7072 -0.4046 1 0 0.055 
N5 N3- 4 a 1.5058(6) -0.6425(3) -0.7332(3) 1 0 0.0303(16) 
H25 H1+ 4 a 1.5497 -0.6761 -0.7697 1 0 0.036 
H26 H1+ 4 a 1.4398 -0.6711 -0.6996 1 0 0.036 
H27 H1+ 4 a 1.4467 -0.6022 -0.7576 1 0 0.036 
H28 H1+ 4 a 1.5857 -0.6182 -0.7037 1 0 0.036 
N6 N3- 4 a 1.4715(6) -0.8955(3) -0.7666(3) 1 0 0.0218(13) 
H29 H1+ 4 a 1.3921 -0.8728 -0.7357 1 0 0.026 
H30 H1+ 4 a 1.5386 -0.9270 -0.7341 1 0 0.026 
H31 H1+ 4 a 1.5314 -0.8560 -0.7906 1 0 0.026 
H32 H1+ 4 a 1.4255 -0.9300 -0.8036 1 0 0.026 

loop_
_atom_site_aniso_label
_atom_site_aniso_type_symbol
_atom_site_aniso_U_11
_atom_site_aniso_U_22
_atom_site_aniso_U_33
_atom_site_aniso_U_12
_atom_site_aniso_U_13
_atom_site_aniso_U_23
P1 P5+ 0.0217(10) 0.0134(9) 0.0138(9) 0.0000(8) -0.0016(8) -0.0004(7)
P2 P5+ 0.0209(10) 0.0154(9) 0.0140(8) 0.0016(8) 0.0014(7) 0.0000(7)
P3 P5+ 0.0182(10) 0.0133(9) 0.0149(8) -0.0005(8) 0.0007(8) 0.0015(7)
P4 P5+ 0.0194(10) 0.0130(9) 0.0167(9) -0.0001(8) -0.0011(8) 0.0005(7)
Al1 Al3+ 0.0225(13) 0.0135(12) 0.0121(10) -0.0023(9) 0.0009(9) 0.0009(8)
Al2 Al3+ 0.0192(14) 0.0130(12) 0.0141(11) 0.0002(8) 0.0007(9) 0.0011(8)
O1 O2- 0.030(3) 0.014(2) 0.017(2) 0.006(2) 0.000(2) 0.004(2)
O2 O2- 0.021(3) 0.013(2) 0.017(2) -0.004(2) 0.001(2) -0.0009(17)
O3 O2- 0.020(3) 0.038(3) 0.023(2) -0.006(2) -0.007(2) 0.000(2)
O4 O2- 0.038(3) 0.015(2) 0.011(2) 0.006(2) 0.005(2) 0.0005(18)
O5 O2- 0.029(3) 0.018(2) 0.014(2) -0.007(2) 0.0001(19) -0.0025(18)
O6 O2- 0.022(3) 0.018(2) 0.016(2) -0.004(2) 0.002(2) 0.0014(18)
O7 O2- 0.026(3) 0.018(2) 0.015(2) 0.006(2) -0.0009(18) -0.0046(19)
O8 O2- 0.017(2) 0.017(2) 0.028(2) -0.004(2) 0.000(2) 0.0048(19)
O9 O2- 0.025(2) 0.016(2) 0.013(2) 0.002(2) 0.000(2) -0.0033(17)
O10 O2- 0.019(3) 0.021(2) 0.016(2) 0.004(2) -0.001(2) -0.0078(19)
O11 O2- 0.028(2) 0.018(2) 0.013(2) -0.003(2) 0.0037(19) 0.0004(19)
O12 O2- 0.022(2) 0.017(2) 0.015(2) -0.0032(19) -0.0004(18) -0.0008(18)
O13 O2- 0.018(2) 0.027(2) 0.027(2) 0.007(2) 0.002(2) -0.0019(19)
O14 O2- 0.026(3) 0.015(2) 0.016(2) -0.001(2) -0.001(2) 0.0002(17)
O15 O2- 0.022(3) 0.025(3) 0.040(3) 0.002(2) -0.003(2) 0.006(2)
O16 O2- 0.035(3) 0.022(2) 0.012(2) -0.010(2) -0.004(2) 0.0003(17)
N1 N3- 0.021(3) 0.016(3) 0.021(3) 0.008(3) -0.008(2) -0.004(2)
C1 C4+ 0.028(4) 0.031(4) 0.031(4) -0.008(3) 0.006(3) 0.000(3)
N2 N3- 0.033(3) 0.017(3) 0.020(3) 0.006(3) -0.010(3) -0.006(2)
C2 C4+ 0.035(4) 0.026(4) 0.034(4) 0.002(3) -0.003(4) 0.004(3)
N3 N3- 0.035(3) 0.020(3) 0.017(3) -0.004(3) 0.007(3) 0.005(2)
C3 C4+ 0.043(5) 0.047(5) 0.023(4) 0.017(4) 0.004(4) 0.012(4)
N4 N3- 0.025(3) 0.016(3) 0.020(3) 0.001(2) 0.006(2) 0.000(2)
C4 C4+ 0.033(4) 0.039(4) 0.037(4) -0.008(4) 0.000(4) -0.001(3)
N5 N3- 0.021(4) 0.019(4) 0.051(4) 0.004(3) -0.010(3) 0.002(3)
N6 N3- 0.017(3) 0.023(4) 0.025(3) -0.003(3) 0.002(3) -0.003(3)
#End of data_416133-ICSD


