data_290274-ICSD
#?2014 by Fachinformationszentrum Karlsruhe, and the U.S. Secretary of 
#Commerce on behalf of the United States.  All rights reserved.
_database_code_ICSD                290274
_audit_creation_date               2013/08/01
_chemical_name_systematic
;
Tris(aluminum Hydride Dimethylamine)
;
_chemical_formula_structural       '(H2 Al N (C H3)2)3'
_chemical_formula_sum              'C6 H24 Al3 N3'
_publ_section_title
;
Stoichiometric and catalytic reactions of Li Al H4 with Me2 N H B H3
;
loop_
_citation_id
_citation_journal_abbrev
_citation_year
_citation_journal_volume
_citation_journal_issue
_citation_page_first
_citation_page_last
_citation_journal_id_ASTM
primary 'Dalton Transactions' 2013 42 18 6337 6343 DTARAF
_publ_author_name
;
Less, R.J.;Simmonds, H.R.;Dane, S.B.J.;Wright, D.S.
;
_cell_length_a                     6.5108(2)
_cell_length_b                     8.7748(2)
_cell_length_c                     25.5084(6)
_cell_angle_alpha                  90.00
_cell_angle_beta                   93.212(1)
_cell_angle_gamma                  90.00
_cell_volume                       1455.03
_cell_formula_units_Z              4
_symmetry_space_group_name_H-M     'P 1 21/c 1'
_symmetry_Int_Tables_number        14
_refine_ls_R_factor_all            .0294
loop_
_symmetry_equiv_pos_site_id
_symmetry_equiv_pos_as_xyz
  1	'x, -y+.5, z+.5'
  2	'-x, -y, -z'
  3	'-x, y+.5, -z+.5'
  4	'x, y, z'
loop_
_atom_type_symbol
_atom_type_oxidation_number
Al3+	3
C4+	4
H1-	-1
N3-	-3
loop_
_atom_site_label
_atom_site_type_symbol
_atom_site_symmetry_multiplicity
_atom_site_Wyckoff_symbol
_atom_site_fract_x
_atom_site_fract_y
_atom_site_fract_z
_atom_site_occupancy
_atom_site_attached_hydrogens
_atom_site_U_iso_or_equiv
Al1 Al3+ 4 e 0.38016(5) 0.07811(4) 0.576488(13) 1 0 0.03312(9) 
H1 H1- 4 e 0.6012(16) 0.1073(14) 0.5867(4) 1 0 0.0555(15) 
H2 H1- 4 e 0.3190(16) -0.0535(13) 0.5407(5) 1 0 0.0555(15) 
Al2 Al3+ 4 e 0.27217(5) 0.43496(4) 0.598655(13) 1 0 0.03547(10) 
H3 H1- 4 e 0.4987(16) 0.4772(13) 0.6054(5) 1 0 0.0555(15) 
H4 H1- 4 e 0.1208(17) 0.5616(13) 0.5807(5) 1 0 0.0555(15) 
Al3 Al3+ 4 e 0.30773(5) 0.18949(4) 0.695970(12) 1 0 0.03515(10) 
H5 H1- 4 e 0.1877(17) 0.1375(14) 0.7421(4) 1 0 0.0555(15) 
H6 H1- 4 e 0.5306(16) 0.2264(14) 0.7033(4) 1 0 0.0555(15) 
N1 N3- 4 e 0.28070(12) 0.02614(10) 0.64471(3) 1 0 0.0333(2) 
N2 N3- 4 e 0.24605(12) 0.26286(10) 0.55110(3) 1 0 0.0321(2) 
N3 N3- 4 e 0.18038(12) 0.37142(11) 0.66619(3) 1 0 0.0330(2) 
C1 C4+ 4 e 0.07001(17) -0.04300(14) 0.64084(5) 1 0 0.0452(3) 
H7 H1- 4 e 0.0686 -0.1300 0.6167 1 0 0.0560(9) 
H8 H1- 4 e -0.0299 0.0333 0.6276 1 0 0.0560(9) 
H9 H1- 4 e 0.0335 -0.0775 0.6756 1 0 0.0560(9) 
C2 C4+ 4 e 0.42347(18) -0.09682(14) 0.66493(5) 1 0 0.0485(3) 
H10 H1- 4 e 0.4205 -0.1816 0.6399 1 0 0.0560(9) 
H11 H1- 4 e 0.3798 -0.1331 0.6989 1 0 0.0560(9) 
H12 H1- 4 e 0.5636 -0.0563 0.6692 1 0 0.0560(9) 
C3 C4+ 4 e 0.35888(18) 0.30819(15) 0.50390(4) 1 0 0.0473(3) 
H13 H1- 4 e 0.2943 0.3990 0.4879 1 0 0.0560(9) 
H14 H1- 4 e 0.3535 0.2245 0.4784 1 0 0.0560(9) 
H15 H1- 4 e 0.5026 0.3306 0.5146 1 0 0.0560(9) 
C4 C4+ 4 e 0.02814(16) 0.23456(14) 0.53209(4) 1 0 0.0434(3) 
H16 H1- 4 e -0.0303 0.3281 0.5164 1 0 0.0560(9) 
H17 H1- 4 e -0.0521 0.2037 0.5617 1 0 0.0560(9) 
H18 H1- 4 e 0.0239 0.1534 0.5057 1 0 0.0560(9) 
C5 C4+ 4 e -0.04959(15) 0.36414(16) 0.66680(5) 1 0 0.0485(3) 
H19 H1- 4 e -0.0892 0.3409 0.7024 1 0 0.0560(9) 
H20 H1- 4 e -0.1015 0.2842 0.6427 1 0 0.0560(9) 
H21 H1- 4 e -0.1084 0.4625 0.6556 1 0 0.0560(9) 
C6 C4+ 4 e 0.24833(18) 0.49699(14) 0.70347(5) 1 0 0.0457(3) 
H22 H1- 4 e 0.2073 0.4722 0.7388 1 0 0.0560(9) 
H23 H1- 4 e 0.1837 0.5930 0.6919 1 0 0.0560(9) 
H24 H1- 4 e 0.3983 0.5075 0.7039 1 0 0.0560(9) 

loop_
_atom_site_aniso_label
_atom_site_aniso_type_symbol
_atom_site_aniso_U_11
_atom_site_aniso_U_22
_atom_site_aniso_U_33
_atom_site_aniso_U_12
_atom_site_aniso_U_13
_atom_site_aniso_U_23
Al1 Al3+ 0.03095(16) 0.03355(19) 0.03464(18) -0.00130(14) -0.00028(13) 
-0.00074(14)
Al2 Al3+ 0.04119(18) 0.03059(19) 0.03415(18) -0.00435(14) -0.00226(14) 
0.00339(14)
Al3 Al3+ 0.03752(18) 0.0384(2) 0.02909(17) -0.00617(14) -0.00175(13) 
0.00410(15)
N1 N3- 0.0307(4) 0.0294(5) 0.0393(5) -0.0034(4) -0.0027(4) 0.0053(4)
N2 N3- 0.0306(4) 0.0365(5) 0.0288(4) -0.0049(4) -0.0017(3) 0.0040(4)
N3 N3- 0.0309(4) 0.0340(5) 0.0340(5) -0.0026(4) 0.0001(4) -0.0041(4)
C1 C4+ 0.0431(6) 0.0417(7) 0.0508(7) -0.0151(5) 0.0032(5) 0.0023(6)
C2 C4+ 0.0540(7) 0.0377(7) 0.0525(8) 0.0013(6) -0.0085(6) 0.0117(6)
C3 C4+ 0.0563(7) 0.0503(8) 0.0359(6) -0.0036(6) 0.0086(5) 0.0056(6)
C4 C4+ 0.0392(6) 0.0464(7) 0.0426(6) -0.0035(5) -0.0143(5) 0.0027(6)
C5 C4+ 0.0311(6) 0.0599(8) 0.0549(8) 0.0008(6) 0.0064(5) -0.0072(7)
C6 C4+ 0.0525(7) 0.0415(7) 0.0426(7) -0.0049(6) -0.0016(5) -0.0105(6)
#End of data_290274-ICSD


