data_49804-ICSD
#?2014 by Fachinformationszentrum Karlsruhe, and the U.S. Secretary of 
#Commerce on behalf of the United States.  All rights reserved.
_database_code_ICSD                49804
_audit_creation_date               1987/01/31
_audit_update_record               2009/02/01
_chemical_name_systematic
;
Potassium Biuretodithiophosphate(V) Hydrate
;
_chemical_formula_structural       'K (C2 H3 N3 O2 P S2) (H2 O)'
_chemical_formula_sum              'C2 H5 K1 N3 O3 P1 S2'
_publ_section_title
;
Darstellung und Kristallstrukturuntersuchungen einiger 
Biureto(thio)phosphate
;
loop_
_citation_id
_citation_journal_abbrev
_citation_year
_citation_journal_volume
_citation_page_first
_citation_page_last
_citation_journal_id_ASTM
primary 'Zeitschrift fuer Anorganische und Allgemeine Chemie (1950) (DE)'
 1986 540 307 318 ZAACAB
_publ_author_name                  'Neels, J.;Jost, K.H.;Meisel, M.'
_cell_length_a                     6.648(1)
_cell_length_b                     6.898(1)
_cell_length_c                     10.416(2)
_cell_angle_alpha                  90.22(2)
_cell_angle_beta                   103.68(1)
_cell_angle_gamma                  97.72(1)
_cell_volume                       459.58
_cell_formula_units_Z              2
_symmetry_space_group_name_H-M     'P -1'
_symmetry_Int_Tables_number        2
_refine_ls_R_factor_all            .037
loop_
_symmetry_equiv_pos_site_id
_symmetry_equiv_pos_as_xyz
  1	'-x, -y, -z'
  2	'x, y, z'
loop_
_atom_type_symbol
_atom_type_oxidation_number
C4+	4
H1+	1
K1+	1
N3-	-3
O2-	-2
P5+	5
S2-	-2
loop_
_atom_site_label
_atom_site_type_symbol
_atom_site_symmetry_multiplicity
_atom_site_Wyckoff_symbol
_atom_site_fract_x
_atom_site_fract_y
_atom_site_fract_z
_atom_site_occupancy
_atom_site_attached_hydrogens
_atom_site_B_iso_or_equiv
K1 K1+ 2 i 0.66098(7) 0.63450(7) 0.28525(5) 1. 0 0 
P1 P5+ 2 i 0.09135(7) 0.18972(6) 0.25899(4) 1. 0 0 
N1 N3- 2 i 0.1602(3) -.0180(2) 0.2054(2) 1. 0 0 
N2 N3- 2 i 0.0687(3) 0.3034(2) 0.1133(2) 1. 0 0 
N3 N3- 2 i 0.3169(3) 0.1412(2) 0.0506(2) 1. 0 0 
C1 C4+ 2 i 0.2940(3) 0.9785(2) 0.1260(2) 1. 0 0 
C2 C4+ 2 i 0.1950(3) 0.2895(2) 0.0296(2) 1. 0 0 
S1 S2- 2 i 0.32874(8) 0.32317(7) 0.39513(5) 1. 0 0 
S2 S2- 2 i 0.81598(7) 0.14299(7) 0.29799(5) 1. 0 0 
O1 O2- 2 i 0.3894(2) 0.8404(2) 0.1168(1) 1. 0 0 
O2 O2- 2 i 0.0820(3) 0.6989(2) 0.3910(2) 1. 0 0 
O3 O2- 2 i 0.7978(2) 0.6001(2) 0.0619(1) 1. 0 0 
H1 H1+ 2 i 0.151(4) 0.902(3) 0.243(2) 1. 0 2.0(5) 
H2 H1+ 2 i 0.991(4) 0.387(3) 0.092(2) 1. 0 2.7(5) 
H3 H1+ 2 i 0.399(4) 0.143(3) 0.007(2) 1. 0 2.4(5) 
H4 H1+ 2 i 0.134(5) 0.601(4) 0.393(3) 1. 0 4.6(7) 
H5 H1+ 2 i 0.111(5) 0.745(4) 0.462(3) 1. 0 5.3(9) 

loop_
_atom_site_aniso_label
_atom_site_aniso_type_symbol
_atom_site_aniso_B_11
_atom_site_aniso_B_22
_atom_site_aniso_B_33
_atom_site_aniso_B_12
_atom_site_aniso_B_13
_atom_site_aniso_B_23
K1 K1+ 2.85(2) 3.78(2) 2.24(2) 0.89(2) 1.03(2) 0.90(2)
P1 P5+ 1.65(2) 1.62(2) 1.36(2) 0.44(1) 0.55(1) 0.08(1)
N1 N3- 2.49(7) 1.47(6) 2.07(6) 0.63(5) 1.13(6) 0.45(5)
N2 N3- 2.38(7) 2.29(6) 1.65(6) 1.38(6) 0.90(5) 0.51(5)
N3 N3- 2.25(7) 2.18(6) 1.98(6) 1.22(5) 1.15(5) 0.74(5)
C1 C4+ 1.67(7) 1.74(6) 1.50(6) 0.48(5) 0.22(5) -.04(5)
C2 C4+ 2.01(7) 1.83(7) 1.41(6) 0.73(6) 0.41(6) 0.13(5)
S1 S2- 2.02(2) 2.97(2) 1.89(2) -.01(2) 0.42(2) -.32(2)
S2 S2- 1.80(2) 2.85(2) 2.50(2) 0.20(2) 0.96(2) -.17(2)
O1 O2- 2.39(6) 1.94(5) 2.38(6) 1.07(4) 0.90(5) 0.30(4)
O2 O2- 4.17(8) 2.59(7) 2.27(6) 0.94(6) 0.90(6) 0.34(5)
O3 O2- 3.39(7) 2.49(6) 2.05(5) 1.48(5) 1.38(5) 0.94(4)
#End of data_49804-ICSD


