data_246783-ICSD
#?2014 by Fachinformationszentrum Karlsruhe, and the U.S. Secretary of 
#Commerce on behalf of the United States.  All rights reserved.
_database_code_ICSD                246783
_audit_creation_date               2010/02/01
_audit_update_record               2010/08/01
_chemical_name_systematic          'Bis(potassium Oxalate) Hydrate'
_chemical_formula_structural       '(C O O K)2 (H2 O)'
_chemical_formula_sum              'C2 H2 K2 O5'
_publ_section_title
;
Neutron diffraction refinement of the structure of potassium oxalate 
monohydrate
;
loop_
_citation_id
_citation_journal_abbrev
_citation_year
_citation_journal_volume
_citation_page_first
_citation_page_last
_citation_journal_id_ASTM
primary 'Acta Crystallographica B (24,1968-38,1982)' 1970 26 77 80 ACBCAR
2 'Acta Crystallographica B (24,1968-38,1982)' 1969 25 469 477 ACBCAR
_publ_author_name
;
Sequeira, A.;Srikanta, S.;Chidambaram, R.
;
_cell_length_a                     9.222(3)
_cell_length_b                     6.197(2)
_cell_length_c                     10.690(5)
_cell_angle_alpha                  90
_cell_angle_beta                   110.70(3)
_cell_angle_gamma                  90
_cell_volume                       571.48
_cell_formula_units_Z              4
_symmetry_space_group_name_H-M     'C 1 2/c 1'
_symmetry_Int_Tables_number        15
_refine_ls_R_factor_all            .026
loop_
_symmetry_equiv_pos_site_id
_symmetry_equiv_pos_as_xyz
  1	'x, -y, z+.5'
  2	'-x, -y, -z'
  3	'-x, y, -z+.5'
  4	'x, y, z'
  5	'x+.5, -y+.5, z+.5'
  6	'-x+.5, -y+.5, -z'
  7	'-x+.5, y+.5, -z+.5'
  8	'x+.5, y+.5, z'
loop_
_atom_type_symbol
_atom_type_oxidation_number
C3+	3
H1+	1
K1+	1
O2-	-2
loop_
_atom_site_label
_atom_site_type_symbol
_atom_site_symmetry_multiplicity
_atom_site_Wyckoff_symbol
_atom_site_fract_x
_atom_site_fract_y
_atom_site_fract_z
_atom_site_occupancy
_atom_site_attached_hydrogens
K1 K1+ 8 f 0.13202(19) 0.83024(27) 0.13207(16) 1. 0 
O1 O2- 8 f 0.12622(12) 0.26965(19) 0.09153(11) 1. 0 
O2 O2- 8 f 0.31972(13) 0.48648(17) 0.09262(11) 1. 0 
O3 O2- 4 e 0 0.49578(35) 0.25 1. 0 
C1 C3+ 8 f 0.23433(10) 0.32553(13) 0.05279(8) 1. 0 
H1 H1+ 8 f 0.03497(27) 0.40404(37) 0.19367(23) 1. 0 

loop_
_atom_site_aniso_label
_atom_site_aniso_type_symbol
_atom_site_aniso_U_11
_atom_site_aniso_U_22
_atom_site_aniso_U_33
_atom_site_aniso_U_12
_atom_site_aniso_U_13
_atom_site_aniso_U_23
K1 K1+ 0.00681(28) 0.01363(64) 0.00408(20) -0.00012(25) 0.00194(15) 
0.00103(21)
O1 O2- 0.00770(17) 0.01568(36) 0.00589(13) -0.00192(16) 0.00475(11) 
-0.00207(14)
O2 O2- 0.00866(18) 0.01297(38) 0.00534(13) -0.00268(17) 0.00357(11) 
-0.00235(14)
O3 O2- 0.01755(37) 0.01319(57) 0.00916(25) 0.00000 0.00918(27) 0.00000
C1 C3+ 0.00527(15) 0.00918(33) 0.00306(11) -0.00055(13) 0.00213(8) 
-0.00045(11)
H1 H1+ 0.01333(39) 0.02000(89) 0.00747(31) 0.00067(36) 0.00495(22) 
-0.00105(32)
#End of data_246783-ICSD


