data_109641-ICSD
#?2014 by Fachinformationszentrum Karlsruhe, and the U.S. Secretary of 
#Commerce on behalf of the United States.  All rights reserved.
_database_code_ICSD                109641
_audit_creation_date               2008/02/01
_chemical_name_systematic
;
Tripotassium Mue-oxalato-dioxalatoaquagadoliniate(III) Dihydrate
;
_chemical_formula_structural       'K3 (Gd (C2 O4)3 (H2 O)) (H2 O)2'
_chemical_formula_sum              'C6 H6 Gd1 K3 O15'
_publ_section_title
;
The crystal structure and coordination geometry of potassium- catena-
mue-oxalato-bis-oxalato aquo lanthanate(III)-dihydrate, K2 (Ln ox3 (O 
H)2) * 2(H2 O) (Ln= Nd, Sm, Eu, Gd, Tb)
;
loop_
_citation_id
_citation_journal_abbrev
_citation_year
_citation_journal_volume
_citation_page_first
_citation_page_last
_citation_journal_id_ASTM
primary 'Inorganica Chimica Acta' 1984 82 161 166 ICHAA3
_publ_author_name
;
Kahwa, I.A.;Fronczek, F.R.;Selbin, J.
;
_cell_length_a                     9.374(4)
_cell_length_b                     8.474(4)
_cell_length_c                     9.739(2)
_cell_angle_alpha                  88.34(3)
_cell_angle_beta                   81.62(2)
_cell_angle_gamma                  96.58(4)
_cell_volume                       759.5
_cell_formula_units_Z              2
_symmetry_space_group_name_H-M     'P -1'
_symmetry_Int_Tables_number        2
_refine_ls_R_factor_all            .021
loop_
_symmetry_equiv_pos_site_id
_symmetry_equiv_pos_as_xyz
  1	'-x, -y, -z'
  2	'x, y, z'
loop_
_atom_type_symbol
_atom_type_oxidation_number
C3+	3
Gd3+	3
H1+	1
K1+	1
O2-	-2
loop_
_atom_site_label
_atom_site_type_symbol
_atom_site_symmetry_multiplicity
_atom_site_Wyckoff_symbol
_atom_site_fract_x
_atom_site_fract_y
_atom_site_fract_z
_atom_site_occupancy
_atom_site_attached_hydrogens
Gd1 Gd3+ 2 i 0.35762(1) 0.22748(2) 0.21755(1) 1. 0 
K1 K1+ 2 i 0.14156(9) 0.2887(1) 0.88675(8) 1. 0 
K2 K1+ 2 i 0.31730(9) 0.0435(1) 0.61061(9) 1. 0 
K3 K1+ 2 i 0.78057(10) 0.3434(1) 0.70243(9) 1. 0 
O1 O2- 2 i 0.5807(3) 0.3462(3) 0.0683(3) 1. 0 
O2 O2- 2 i 0.3165(2) 0.4476(3) 0.0703(2) 1. 0 
O3 O2- 2 i 0.5084(3) 0.0112(3) 0.1772(2) 1. 0 
O4 O2- 2 i 0.3645(3) 0.1216(3) -.0152(3) 1. 0 
O5 O2- 2 i 0.1118(3) 0.1939(3) 0.1694(3) 1. 0 
O6 O2- 2 i 0.2128(3) -.0013(3) 0.3389(3) 1. 0 
O7 O2- 2 i 0.5082(3) 0.2115(3) 0.3944(2) 1. 0 
O8 O2- 2 i 0.4569(3) 0.4898(3) 0.3003(3) 1. 0 
O9 O2- 2 i -.0929(3) 0.0304(3) 0.1781(3) 1. 0 
O10 O2- 2 i -.0035(3) -.1488(3) 0.3775(3) 1. 0 
O11 O2- 2 i 0.7257(3) 0.3143(3) 0.4382(3) 1. 0 
O12 O2- 2 i 0.6644(3) 0.6078(3) 0.3554(3) 1. 0 
O13 O2- 2 i 0.1995(3) 0.3306(3) 0.4192(2) 1. 0 
O14 O2- 2 i 0.9625(3) 0.4730(3) 0.2445(3) 1. 0 
O15 O2- 2 i 0.8448(3) 0.2236(4) 0.9593(3) 1. 0 
C1 C3+ 2 i 0.5766(3) 0.4712(4) -.0013(3) 1. 0 
C2 C3+ 2 i 0.5429(4) -.0323(4) 0.0550(3) 1. 0 
C3 C3+ 2 i 0.0258(4) 0.0704(4) 0.2136(4) 1. 0 
C4 C3+ 2 i 0.0815(4) -.0361(4) 0.3227(4) 1. 0 
C5 C3+ 2 i 0.6082(4) 0.3250(4) 0.3981(3) 1. 0 
C6 C3+ 2 i 0.5756(4) 0.4918(4) 0.3466(3) 1. 0 
H1 H1+ 2 i 0.1387 0.2500 0.4434 1. 0 
H2 H1+ 2 i 0.2500 0.3594 0.5000 1. 0 
H3 H1+ 2 i 1.0000 0.3887 0.2207 1. 0 
H4 H1+ 2 i 0.9160 0.4160 0.3047 1. 0 
H5 H1+ 2 i 0.8613 0.1680 1.0293 1. 0 
H6 H1+ 2 i 0.7793 0.2793 1.0293 1. 0 

#End of data_109641-ICSD


