data_110404-ICSD
#?2014 by Fachinformationszentrum Karlsruhe, and the U.S. Secretary of 
#Commerce on behalf of the United States.  All rights reserved.
_database_code_ICSD                110404
_audit_creation_date               2008/08/01
_chemical_name_systematic
;
Bis(dimethylammonium) Hydrogentris(phosphato(V))aluminate
;
_chemical_formula_structural       '((C H3)2 N H2)2 (Al2 H (P O4)3)'
_chemical_formula_sum              'C4 H17 Al2 N2 O12 P3'
_publ_section_title
;
Hydrogen-bonded helices in the layered aluminophosphate (C2 H8 N)2 
(Al2 (H P O4) (P O4)2)
;
loop_
_citation_id
_citation_journal_abbrev
_citation_year
_citation_journal_volume
_citation_page_first
_citation_page_last
_citation_journal_id_ASTM
primary 'Angewandte Chemie (Edition international)' 2004 43 2399 2402 ACIEAY
_publ_author_name
;
Song Yu;Yu Jihong;Li Yi;Li Guanghua;Xu Ruren
;
_cell_length_a                     18.4872(15)
_cell_length_b                     5.0148(4)
_cell_length_c                     35.466(3)
_cell_angle_alpha                  90
_cell_angle_beta                   98.244(6)
_cell_angle_gamma                  90
_cell_volume                       3254.06
_cell_formula_units_Z              8
_symmetry_space_group_name_H-M     'C 1 2/c 1'
_symmetry_Int_Tables_number        15
_refine_ls_R_factor_all            .047
loop_
_symmetry_equiv_pos_site_id
_symmetry_equiv_pos_as_xyz
  1	'x, -y, z+.5'
  2	'-x, -y, -z'
  3	'-x, y, -z+.5'
  4	'x, y, z'
  5	'x+.5, -y+.5, z+.5'
  6	'-x+.5, -y+.5, -z'
  7	'-x+.5, y+.5, -z+.5'
  8	'x+.5, y+.5, z'
loop_
_atom_type_symbol
_atom_type_oxidation_number
Al3+	3
C4+	4
H1-	-1
H1+	1
N3-	-3
O2-	-2
P5+	5
loop_
_atom_site_label
_atom_site_type_symbol
_atom_site_symmetry_multiplicity
_atom_site_Wyckoff_symbol
_atom_site_fract_x
_atom_site_fract_y
_atom_site_fract_z
_atom_site_occupancy
_atom_site_attached_hydrogens
P1 P5+ 8 f 0.54414(6) -0.7087(2) 0.36213(4) 1. 0 
P2 P5+ 8 f 0.84810(6) -0.7145(2) 0.43622(3) 1. 0 
P3 P5+ 8 f 0.76223(6) -1.2840(2) 0.33697(3) 1. 0 
Al1 Al3+ 8 f 0.71070(7) -0.7810(3) 0.37625(4) 1. 0 
Al2 Al3+ 8 f 0.90063(7) -0.2186(3) 0.39581(4) 1. 0 
O1 O2- 8 f 0.53158(17) -0.4469(6) 0.34371(10) 1. 0 
O2 O2- 8 f 0.85911(15) -0.7818(6) 0.47765(8) 1. 0 
O3 O2- 8 f 0.87599(16) -0.4278(6) 0.43115(9) 1. 0 
O4 O2- 8 f 0.72151(15) -1.1088(6) 0.36239(9) 1. 0 
O5 O2- 8 f 0.74965(16) -1.2035(6) 0.29615(9) 1. 0 
O6 O2- 8 f 0.84460(15) -1.2711(6) 0.35236(8) 1. 0 
O7 O2- 8 f 0.89024(16) -0.8964(6) 0.41223(9) 1. 0 
O8 O2- 8 f 0.62153(14) -0.7388(6) 0.38510(9) 1. 0 
O9 O2- 8 f 0.76626(14) -0.7232(6) 0.41964(8) 1. 0 
O10 O2- 8 f 0.73570(16) -1.5712(6) 0.34155(9) 1. 0 
O11 O2- 8 f 0.49132(15) -0.7720(6) 0.39100(9) 1. 0 
O12 O2- 8 f 0.5342(2) -0.9290(8) 0.33063(10) 1. 0 
N1 N3- 8 f 0.8480(2) 0.0490(9) 0.25779(12) 1. 0 
H1 H1+ 8 f 0.81810 0.14100 0.24010 1. 0 
H2 H1+ 8 f 0.81980 -0.05240 0.27080 1. 0 
N2 N3- 8 f 0.8777(2) -0.2673(8) 0.51556(11) 1. 0 
H3 H1+ 8 f 0.87300 -0.41730 0.50150 1. 0 
H4 H1+ 8 f 0.86740 -0.12830 0.49970 1. 0 
C1 C4+ 8 f 0.8944(3) -0.1281(12) 0.23812(19) 1. 0 
H5 H1- 8 f 0.86400 -0.24450 0.22120 1. 0 
H6 H1- 8 f 0.92520 -0.23250 0.25660 1. 0 
H7 H1- 8 f 0.92420 -0.02230 0.22380 1. 0 
C2 C4+ 8 f 0.8889(3) 0.2399(13) 0.28444(18) 1. 0 
H8 H1- 8 f 0.85510 0.34820 0.29590 1. 0 
H9 H1- 8 f 0.91840 0.35160 0.27080 1. 0 
H10 H1- 8 f 0.91970 0.14390 0.30400 1. 0 
C3 C4+ 8 f 0.8246(4) -0.2737(15) 0.54262(19) 1. 0 
H11 H1- 8 f 0.77610 -0.28970 0.52890 1. 0 
H12 H1- 8 f 0.82820 -0.11200 0.55730 1. 0 
H13 H1- 8 f 0.83470 -0.42360 0.55940 1. 0 
C4 C4+ 8 f 0.9533(3) -0.2444(13) 0.5341(2) 1. 0 
H14 H1- 8 f 0.98540 -0.24120 0.51510 1. 0 
H15 H1- 8 f 0.96510 -0.39430 0.55070 1. 0 
H16 H1- 8 f 0.95900 -0.08270 0.54870 1. 0 
H17 H1+ 8 f 0.537(3) -1.065(11) 0.3392(17) 1. 0 

#End of data_110404-ICSD


