data_240771-ICSD
#?2014 by Fachinformationszentrum Karlsruhe, and the U.S. Secretary of 
#Commerce on behalf of the United States.  All rights reserved.
_database_code_ICSD                240771
_audit_creation_date               2007/08/01
_chemical_name_systematic
;
Magnesium Tetrathiosquarate Hexahydrate
;
_chemical_formula_structural       'Mg (C4 S4) (H2 O)6'
_chemical_formula_sum              'C4 H12 Mg1 O6 S4'
_publ_section_title
;
Earth Alkaline Tetrathiosquarates: Syntheses and Crystal Structures 
of MgC4S4 ¨² 6 H2O and CaC4S4 ¨² 4 H2O
;
loop_
_citation_id
_citation_journal_abbrev
_citation_year
_citation_journal_volume
_citation_journal_issue
_citation_page_first
_citation_page_last
_citation_journal_id_ASTM
primary 'Zeitschrift fuer Anorganische und Allgemeine Chemie (1950) (DE)'
 2007 633 3 435 439 ZAACAB
_publ_author_name                  'Beck, J.;Ben-Amer, Y.'
_cell_length_a                     17.228(7)
_cell_length_b                     5.9185(17)
_cell_length_c                     13.148(4)
_cell_angle_alpha                  90.00
_cell_angle_beta                   104.73(3)
_cell_angle_gamma                  90.00
_cell_volume                       1296.56
_cell_formula_units_Z              4
_symmetry_space_group_name_H-M     'C 1 2/c 1'
_symmetry_Int_Tables_number        15
_refine_ls_R_factor_all            .0266
loop_
_symmetry_equiv_pos_site_id
_symmetry_equiv_pos_as_xyz
  1	'x, -y, z+.5'
  2	'-x, -y, -z'
  3	'-x, y, -z+.5'
  4	'x, y, z'
  5	'x+.5, -y+.5, z+.5'
  6	'-x+.5, -y+.5, -z'
  7	'-x+.5, y+.5, -z+.5'
  8	'x+.5, y+.5, z'
loop_
_atom_type_symbol
_atom_type_oxidation_number
C1.5+	1.5
H1+	1
Mg2+	2
O2-	-2
S2-	-2
loop_
_atom_site_label
_atom_site_type_symbol
_atom_site_symmetry_multiplicity
_atom_site_Wyckoff_symbol
_atom_site_fract_x
_atom_site_fract_y
_atom_site_fract_z
_atom_site_occupancy
_atom_site_attached_hydrogens
_atom_site_U_iso_or_equiv
S1 S2- 8 f 0.89638(3) 0.09352(8) 0.50126(5) 1 0 0.0332(3) 
S2 S2- 8 f 0.73739(3) -0.06860(10) 0.64051(5) 1 0 0.0441(3) 
C1 C1.5+ 8 f 0.74496(12) 0.1284(3) 0.55411(18) 1 0 0.0297(5) 
C2 C1.5+ 8 f 0.80540(11) 0.1892(3) 0.49998(17) 1 0 0.0286(5) 
Mg1 Mg2+ 4 e 1.0000 0.57999(13) 0.7500 1 0 0.0254(3) 
O1 O2- 8 f 1.08208(9) 0.8232(3) 0.72917(16) 1 0 0.0337(4) 
H1 H1+ 8 f 1.0894(15) 0.827(5) 0.669(3) 1 0 0.059(10) 
H2 H1+ 8 f 1.128(2) 0.840(6) 0.770(3) 1 0 0.094(12) 
O2 O2- 8 f 0.92612(10) 0.3285(3) 0.77932(15) 1 0 0.0431(5) 
H3 H1+ 8 f 0.8882(16) 0.359(4) 0.802(2) 1 0 0.057(9) 
H4 H1+ 8 f 0.9328(17) 0.199(6) 0.770(3) 1 0 0.088(12) 
O3 O2- 8 f 1.05260(11) 0.5999(3) 0.90762(15) 1 0 0.0413(5) 
H5 H1+ 8 f 1.0778(14) 0.707(5) 0.940(2) 1 0 0.057(9) 
H6 H1+ 8 f 1.0690(18) 0.492(5) 0.951(3) 1 0 0.081(11) 

loop_
_atom_site_aniso_label
_atom_site_aniso_type_symbol
_atom_site_aniso_U_11
_atom_site_aniso_U_22
_atom_site_aniso_U_33
_atom_site_aniso_U_12
_atom_site_aniso_U_13
_atom_site_aniso_U_23
S1 S2- 0.0321(4) 0.0313(4) 0.0413(5) 0.0059(2) 0.0189(3) 0.0080(2)
S2 S2- 0.0347(4) 0.0482(4) 0.0552(6) 0.0076(2) 0.0224(4) 0.0288(3)
C1 C1.5+ 0.0305(10) 0.0287(10) 0.0317(14) -0.0008(9) 0.0113(10) 0.0024(10)
C2 C1.5+ 0.0322(11) 0.0253(11) 0.0301(13) -0.0028(9) 0.0114(10) 0.0001(9)
Mg1 Mg2+ 0.0289(5) 0.0195(5) 0.0306(7) 0.000 0.0131(5) 0.000
O1 O2- 0.0351(9) 0.0340(9) 0.0355(11) -0.0072(7) 0.0154(9) -0.0015(7)
O2 O2- 0.0458(10) 0.0275(10) 0.0661(14) -0.0056(7) 0.0325(10) -0.0022(8)
O3 O2- 0.0555(10) 0.0290(10) 0.0355(11) 0.0010(8) 0.0045(10) -0.0003(8)
#End of data_240771-ICSD


