data_109640-ICSD
#?2014 by Fachinformationszentrum Karlsruhe, and the U.S. Secretary of 
#Commerce on behalf of the United States.  All rights reserved.
_database_code_ICSD                109640
_audit_creation_date               2008/02/01
_audit_update_record               2012/02/01
_chemical_name_systematic
;
Tripotassium Mue-oxalato-dioxalatoaquaneodymiate(III) Dihydrate
;
_chemical_formula_structural       'K3 (Nd (C2 O4)3 (H2 O)) (H2 O)2'
_chemical_formula_sum              'C6 H6 K3 Nd1 O15'
_publ_section_title
;
The crystal structure and coordination geometry of potassium- catena-
mue-oxalato-bis-oxalato aquo lanthanate(III)-dihydrate, K2 (Ln ox3 (O 
H)2) * 2(H2 O) (Ln= Nd, Sm, Eu, Gd, Tb)
;
loop_
_citation_id
_citation_journal_abbrev
_citation_year
_citation_journal_volume
_citation_page_first
_citation_page_last
_citation_journal_id_ASTM
primary 'Inorganica Chimica Acta' 1984 82 161 166 ICHAA3
_publ_author_name
;
Kahwa, I.A.;Fronczek, F.R.;Selbin, J.
;
_cell_length_a                     9.416(2)
_cell_length_b                     8.502(4)
_cell_length_c                     9.799(3)
_cell_angle_alpha                  88.91(3)
_cell_angle_beta                   82.17(3)
_cell_angle_gamma                  96.28(3)
_cell_volume                       772.02
_cell_formula_units_Z              2
_symmetry_space_group_name_H-M     'P -1'
_symmetry_Int_Tables_number        2
_refine_ls_R_factor_all            .036
loop_
_symmetry_equiv_pos_site_id
_symmetry_equiv_pos_as_xyz
  1	'-x, -y, -z'
  2	'x, y, z'
loop_
_atom_type_symbol
_atom_type_oxidation_number
C3+	3
H1+	1
K1+	1
Nd3+	3
O2-	-2
loop_
_atom_site_label
_atom_site_type_symbol
_atom_site_symmetry_multiplicity
_atom_site_Wyckoff_symbol
_atom_site_fract_x
_atom_site_fract_y
_atom_site_fract_z
_atom_site_occupancy
_atom_site_attached_hydrogens
Nd1 Nd3+ 2 i 0.35566(2) 0.22705(2) 0.22081(2) 1. 0 
K1 K1+ 2 i 0.1414(1) 0.2885(1) 0.8873(1) 1. 0 
K2 K1+ 2 i 0.3172(1) 0.0458(1) 0.6133(1) 1. 0 
K3 K1+ 2 i 0.7823(1) 0.3425(1) 0.7010(1) 1. 0 
O1 O2- 2 i 0.5816(4) 0.3499(4) 0.0711(3) 1. 0 
O2 O2- 2 i 0.3180(3) 0.4502(3) 0.0690(3) 1. 0 
O3 O2- 2 i 0.5067(4) 0.0065(4) 0.1771(3) 1. 0 
O4 O2- 2 i 0.3645(3) 0.1215(4) -.0153(3) 1. 0 
O5 O2- 2 i 0.1071(3) 0.1928(3) 0.1689(3) 1. 0 
O6 O2- 2 i 0.2054(4) -.0028(4) 0.3414(3) 1. 0 
O7 O2- 2 i 0.5119(4) 0.2118(4) 0.3996(3) 1. 0 
O8 O2- 2 i 0.4556(3) 0.4903(4) 0.3067(3) 1. 0 
O9 O2- 2 i -.0961(4) 0.0296(4) 0.1760(4) 1. 0 
O10 O2- 2 i -.0102(4) -.1496(4) 0.3734(4) 1. 0 
O11 O2- 2 i 0.7302(4) 0.3147(4) 0.4359(4) 1. 0 
O12 O2- 2 i 0.6661(4) 0.6071(4) 0.3519(3) 1. 0 
O13 O2- 2 i 0.1951(4) 0.3332(4) 0.4242(3) 1. 0 
O14 O2- 2 i 0.9641(4) 0.4714(4) 0.2435(4) 1. 0 
O15 O2- 2 i 0.8426(4) 0.2240(4) 0.9597(4) 1. 0 
C1 C3+ 2 i 0.5766(4) 0.4713(5) 0.0009(4) 1. 0 
C2 C3+ 2 i 0.5410(5) -.0329(5) 0.0550(4) 1. 0 
C3 C3+ 2 i 0.0223(5) 0.0699(5) 0.2125(4) 1. 0 
C4 C3+ 2 i 0.0769(5) -.0368(5) 0.3208(5) 1. 0 
C5 C3+ 2 i 0.6115(5) 0.3250(5) 0.4006(4) 1. 0 
C6 C3+ 2 i 0.5767(5) 0.4915(5) 0.3497(4) 1. 0 
H1 H1+ 2 i 0.1133 0.2773 0.4707 1. 0 
H2 H1+ 2 i 0.2285 0.3594 0.5000 1. 0 
H3 H1+ 2 i 1.0000 0.3887 0.1934 1. 0 
H4 H1+ 2 i 0.8848 0.4434 0.3047 1. 0 
H5 H1+ 2 i 0.8555 0.1387 1.0273 1. 0 
H6 H1+ 2 i 0.7695 0.2773 1.0000 1. 0 

#End of data_109640-ICSD


