data_68711-ICSD
#?2014 by Fachinformationszentrum Karlsruhe, and the U.S. Secretary of 
#Commerce on behalf of the United States.  All rights reserved.
_database_code_ICSD                68711
_audit_creation_date               1992/01/20
_audit_update_record               2007/08/01
_chemical_name_systematic
;
Pentasodium Carbonate Tris(hydrogencarbonate)
;
_chemical_formula_structural       'Na5 (C O3) (H C O3)3'
_chemical_formula_sum              'C4 H3 Na5 O12'
_chemical_name_mineral             Wegscheiderite
_publ_section_title
;
Structure and electron density of pentasodium 
trihydrogentetracarbonate
;
loop_
_citation_id
_citation_journal_abbrev
_citation_year
_citation_journal_volume
_citation_page_first
_citation_page_last
_citation_journal_id_ASTM
primary 'Acta Crystallographica, Section B: Structural Science'
 1990 46 466 474 ASBSDK
_publ_author_name
;
Fernandes, N.G.;Tellgren, R.;Olovsson, I.
;
_cell_length_a                     3.4762(1)
_cell_length_b                     10.0393(2)
_cell_length_c                     15.5969(3)
_cell_angle_alpha                  107.770(2)
_cell_angle_beta                   95.589(2)
_cell_angle_gamma                  95.028(2)
_cell_volume                       511.91
_cell_formula_units_Z              2
_symmetry_space_group_name_H-M     'P -1'
_symmetry_Int_Tables_number        2
_refine_ls_R_factor_all            .029
loop_
_symmetry_equiv_pos_site_id
_symmetry_equiv_pos_as_xyz
  1	'-x, -y, -z'
  2	'x, y, z'
loop_
_atom_type_symbol
_atom_type_oxidation_number
C4+	4
H1+	1
Na1+	1
O2-	-2
loop_
_atom_site_label
_atom_site_type_symbol
_atom_site_symmetry_multiplicity
_atom_site_Wyckoff_symbol
_atom_site_fract_x
_atom_site_fract_y
_atom_site_fract_z
_atom_site_occupancy
_atom_site_attached_hydrogens
_atom_site_U_iso_or_equiv
Na1 Na1+ 2 i 0.78632(5) 0.67317(2) 0.04873(1) 1. 0 0 
Na2 Na1+ 2 i 0.81130(5) 0.18185(2) 0.09932(1) 1. 0 0 
Na3 Na1+ 2 i 0.18047(4) 0.71800(2) 0.27916(1) 1. 0 0 
Na4 Na1+ 2 i 0.42761(4) 0.21298(2) 0.30787(1) 1. 0 0 
Na5 Na1+ 2 i 0.77185(5) 0.74803(2) 0.47762(1) 1. 0 0 
O1 O2- 2 i 0.28749(9) 0.55431(4) 0.09748(3) 1. 0 0 
O2 O2- 2 i 0.37640(8) 0.34347(5) 0.10976(2) 1. 0 0 
O3 O2- 2 i 0.62239(16) 0.54136(7) 0.22131(5) 1. 0 0 
O4 O2- 2 i 0.94197(15) 0.38381(7) 0.30290(5) 1. 0 0 
O5 O2- 2 i 0.18035(8) 0.60058(5) 0.39492(2) 1. 0 0 
O6 O2- 2 i 0.30491(16) 0.40970(8) 0.43290(5) 1. 0 0 
O7 O2- 2 i 0.30385(9) 0.85333(4) 0.05650(3) 1. 0 0 
O8 O2- 2 i 0.30195(8) 0.06961(5) 0.15427(2) 1. 0 0 
O9 O2- 2 i 0.07345(13) 0.87712(7) 0.18646(6) 1. 0 0 
O10 O2- 2 i 0.88991(12) 0.06120(7) 0.32907(5) 1. 0 0 
O11 O2- 2 i 0.73764(7) 0.86380(5) 0.36291(2) 1. 0 0 
O12 O2- 2 i 0.64812(13) 0.07382(7) 0.45689(5) 1. 0 0 
C1 C4+ 2 i 0.41972(12) 0.47544(4) 0.13898(4) 1. 0 0 
C2 C4+ 2 i 0.13807(12) 0.46837(5) 0.37668(4) 1. 0 0 
C3 C4+ 2 i 0.23680(11) 0.93709(4) 0.12978(3) 1. 0 0 
C4 C4+ 2 i 0.75976(10) 0.99593(5) 0.38122(4) 1. 0 0 
H1 H1+ 2 i 0.715 0.469 0.248 1. 0 0.044 
H2 H1+ 1 h 0.5 0.5 0.5 1. 0 0.044 
H3 H1+ 2 i 0.009 0.955 0.239 1. 0 0.044 
H4 H1+ 1 f 0.5 0 0.5 1. 0 0.044 

#End of data_68711-ICSD


