data_245066-ICSD
#?2014 by Fachinformationszentrum Karlsruhe, and the U.S. Secretary of 
#Commerce on behalf of the United States.  All rights reserved.
_database_code_ICSD                245066
_audit_creation_date               2007/04/01
_chemical_name_systematic
;
Bis(guanidinium) Hexahydroxooctadecaoxodisodiohexamolybdonickelate 
Decahydrate
;
_chemical_formula_structural
;
(C H6 N3)2 (Na2 Ni (O H)6 Mo6 O18)  (H2 O)10
;
_chemical_formula_sum              'C2 H38 Mo6 N6 Na2 Ni1 O34'
_publ_section_title
;
Bis(guanidinium) hexahydroxooctadecaoxodisodiohexamolybdonickelate 
decahydrate
;
loop_
_citation_id
_citation_journal_abbrev
_citation_year
_citation_journal_volume
_citation_page_first
_citation_page_last
_citation_journal_id_ASTM
primary 'Acta Crystallographica, Section E. Structure Reports Online'
 2006 62 m3185 m3187 ACSEBH
_publ_author_name
;
Liu Bo;Zhou Shi;Li Chuanbi;Zhang Honggang
;
_cell_length_a                     25.2247(9)
_cell_length_b                     11.6583(4)
_cell_length_c                     13.7668(5)
_cell_angle_alpha                  90.00
_cell_angle_beta                   114.918(4)
_cell_angle_gamma                  90.00
_cell_volume                       3671.63
_cell_formula_units_Z              4
_symmetry_space_group_name_H-M     'C 1 2/c 1'
_symmetry_Int_Tables_number        15
_refine_ls_R_factor_all            .0266
loop_
_symmetry_equiv_pos_site_id
_symmetry_equiv_pos_as_xyz
  1	'x, -y, z+.5'
  2	'-x, -y, -z'
  3	'-x, y, -z+.5'
  4	'x, y, z'
  5	'x+.5, -y+.5, z+.5'
  6	'-x+.5, -y+.5, -z'
  7	'-x+.5, y+.5, -z+.5'
  8	'x+.5, y+.5, z'
loop_
_atom_type_symbol
_atom_type_oxidation_number
C4+	4
H1+	1
Mo6+	6
N3-	-3
Na1+	1
Ni2+	2
O2-	-2
loop_
_atom_site_label
_atom_site_type_symbol
_atom_site_symmetry_multiplicity
_atom_site_Wyckoff_symbol
_atom_site_fract_x
_atom_site_fract_y
_atom_site_fract_z
_atom_site_occupancy
_atom_site_attached_hydrogens
_atom_site_U_iso_or_equiv
Ni1 Ni2+ 4 c 0.7500 0.7500 0.0000 1 0 0.01399(12) 
Mo1 Mo6+ 8 f 0.875219(11) 0.65271(2) 0.18571(2) 1 0 0.01685(8) 
Mo2 Mo6+ 8 f 0.627324(11) 0.71958(2) 0.03086(2) 1 0 0.01634(8) 
Mo3 Mo6+ 8 f 0.752803(11) 0.62372(2) 0.21791(2) 1 0 0.01563(8) 
Na1 Na1+ 8 f 0.83122(6) 0.34440(12) 0.19303(11) 1 0 0.0304(3) 
O1 O2- 8 f 0.78101(9) 0.60580(18) 0.08711(16) 1 0 0.0160(4) 
H1 H1+ 8 f 0.7719 0.5389 0.0561 1 0 0.019 
O2 O2- 8 f 0.72033(9) 0.78138(17) 0.11499(16) 1 0 0.0151(4) 
H2 H1+ 8 f 0.7252 0.8473 0.1452 1 0 0.018 
O3 O2- 8 f 0.83390(9) 0.80500(18) 0.08610(17) 1 0 0.0168(4) 
H3 H1+ 8 f 0.8382 0.8667 0.1147 1 0 0.020 
O4 O2- 8 f 0.88537(10) 0.64101(18) 0.05404(18) 1 0 0.0200(5) 
O5 O2- 8 f 0.82963(10) 0.69438(19) 0.26683(17) 1 0 0.0191(4) 
O6 O2- 8 f 0.77292(11) 0.4850(2) 0.25988(19) 1 0 0.0258(5) 
O7 O2- 8 f 0.61116(10) 0.7807(2) 0.12909(18) 1 0 0.0254(5) 
O8 O2- 8 f 0.67600(9) 0.59067(18) 0.10722(18) 1 0 0.0195(4) 
O9 O2- 8 f 0.89049(11) 0.5110(2) 0.22220(19) 1 0 0.0270(5) 
O10 O2- 8 f 0.93650(10) 0.7243(2) 0.26786(19) 1 0 0.0317(6) 
O11 O2- 8 f 0.56614(11) 0.6427(2) -0.0445(2) 1 0 0.0301(6) 
O12 O2- 8 f 0.73482(10) 0.6854(2) 0.31356(18) 1 0 0.0248(5) 
O13 O2- 8 f 0.75490(12) 0.3860(2) 0.0220(2) 1 0 0.0315(6) 
H4 H1+ 8 f 0.7245 0.3661 0.0292 1 0 0.038 
H5 H1+ 8 f 0.7474 0.3601 -0.0385 1 0 0.038 
O14 O2- 8 f 0.65516(15) 0.3564(2) 0.0716(2) 1 0 0.0471(8) 
H6 H1+ 8 f 0.6636 0.4281 0.0964 1 0 0.057 
H7 H1+ 8 f 0.6682 0.3233 0.1355 1 0 0.057 
O15 O2- 8 f 0.63482(16) 0.4915(3) 0.2827(3) 1 0 0.0581(9) 
H8 H1+ 8 f 0.6255 0.5451 0.3154 1 0 0.070 
H9 H1+ 8 f 0.6511 0.5313 0.2470 1 0 0.070 
O16 O2- 4 e 0.5000 0.4497(7) 0.2500 1 0 0.113(5) 
H10 H1+ 8 f 0.5300 0.4079 0.2624 1 0 0.135 
O17 O2- 4 e 0.5000 0.6753(7) 0.2500 1 0 0.142(4) 
H11 H1+ 8 f 0.4920 0.6310 0.2969 1 0 0.171 
O18 O2- 8 f 0.88282(14) 0.2150(3) 0.1377(2) 1 0 0.0466(7) 
H12 H1+ 8 f 0.9182 0.2218 0.1812 1 0 0.056 
H13 H1+ 8 f 0.8772 0.1987 0.0761 1 0 0.056 
N1 N3- 8 f 0.90291(13) 0.5722(3) 0.4734(2) 1 0 0.0337(7) 
H14 H1+ 8 f 0.8817 0.6152 0.4205 1 0 0.040 
H15 H1+ 8 f 0.8887 0.5098 0.4860 1 0 0.040 
N2 N3- 8 f 0.98862(15) 0.5344(3) 0.6167(3) 1 0 0.0459(9) 
H16 H1+ 8 f 0.9738 0.4725 0.6286 1 0 0.055 
H17 H1+ 8 f 1.0241 0.5528 0.6577 1 0 0.055 
N3 N3- 8 f 0.97935(16) 0.6976(3) 0.5166(3) 1 0 0.0491(10) 
H18 H1+ 8 f 0.9586 0.7413 0.4640 1 0 0.059 
H19 H1+ 8 f 1.0148 0.7161 0.5576 1 0 0.059 
C1 C4+ 8 f 0.95669(15) 0.6017(3) 0.5347(3) 1 0 0.0281(8) 

loop_
_atom_site_aniso_label
_atom_site_aniso_type_symbol
_atom_site_aniso_U_11
_atom_site_aniso_U_22
_atom_site_aniso_U_33
_atom_site_aniso_U_12
_atom_site_aniso_U_13
_atom_site_aniso_U_23
Ni1 Ni2+ 0.0136(3) 0.0149(3) 0.0125(3) 0.0014(2) 0.0045(2) 0.0013(2)
Mo1 Mo6+ 0.01433(14) 0.01939(14) 0.01446(14) 0.00183(10) 0.00376(10) 
0.00253(10)
Mo2 Mo6+ 0.01388(14) 0.01949(15) 0.01508(14) 0.00034(10) 0.00553(10) 
0.00090(10)
Mo3 Mo6+ 0.01756(14) 0.01569(14) 0.01377(14) 0.00222(10) 0.00672(11) 
0.00250(10)
Na1 Na1+ 0.0325(8) 0.0282(7) 0.0264(7) -0.0019(6) 0.0084(6) 0.0016(6)
O1 O2- 0.0175(10) 0.0141(10) 0.0152(10) 0.0003(8) 0.0058(8) -0.0017(8)
O2 O2- 0.0172(11) 0.0126(10) 0.0154(10) -0.0005(8) 0.0067(9) -0.0005(8)
O3 O2- 0.0184(11) 0.0142(10) 0.0173(11) -0.0003(8) 0.0070(9) -0.0021(8)
O4 O2- 0.0217(11) 0.0200(11) 0.0196(11) 0.0070(9) 0.0100(9) 0.0030(9)
O5 O2- 0.0207(11) 0.0219(11) 0.0133(10) -0.0001(9) 0.0058(9) -0.0012(9)
O6 O2- 0.0285(13) 0.0205(12) 0.0287(13) 0.0032(10) 0.0124(11) 0.0078(10)
O7 O2- 0.0236(12) 0.0325(14) 0.0225(12) 0.0035(10) 0.0122(10) 0.0013(10)
O8 O2- 0.0191(11) 0.0167(11) 0.0213(11) -0.0020(9) 0.0072(9) 0.0015(9)
O9 O2- 0.0256(12) 0.0277(13) 0.0268(12) 0.0074(10) 0.0102(10) 0.0085(10)
O10 O2- 0.0217(13) 0.0430(16) 0.0248(13) -0.0074(11) 0.0043(11) -0.0016(11)
O11 O2- 0.0212(12) 0.0355(14) 0.0287(13) -0.0068(10) 0.0055(10) -0.0018(11)
O12 O2- 0.0266(12) 0.0309(13) 0.0191(12) 0.0012(10) 0.0118(10) -0.0006(10)
O13 O2- 0.0422(15) 0.0270(13) 0.0240(13) -0.0046(11) 0.0126(12) -0.0063(10)
O14 O2- 0.072(2) 0.0280(15) 0.0297(15) -0.0036(14) 0.0095(14) -0.0001(12)
O15 O2- 0.079(3) 0.0401(18) 0.065(2) -0.0005(17) 0.041(2) 0.0114(16)
O16 O2- 0.118(9) 0.025(4) 0.082(7) 0.000 -0.068(6) 0.000
O17 O2- 0.066(5) 0.101(6) 0.171(8) 0.000 -0.038(5) 0.000
O18 O2- 0.0470(18) 0.056(2) 0.0362(16) 0.0046(15) 0.0169(14) -0.0035(14)
N1 N3- 0.0254(16) 0.0385(18) 0.0276(16) -0.0082(13) 0.0019(13) 0.0100(14)
N2 N3- 0.0307(18) 0.062(2) 0.0360(19) 0.0033(17) 0.0055(15) 0.0176(18)
N3 N3- 0.036(2) 0.052(2) 0.051(2) -0.0205(17) 0.0101(17) 0.0080(18)
C1 C4+ 0.0232(17) 0.040(2) 0.0226(17) -0.0016(15) 0.0110(14) -0.0006(15)
#End of data_245066-ICSD


