data_249694-ICSD
#?2014 by Fachinformationszentrum Karlsruhe, and the U.S. Secretary of 
#Commerce on behalf of the United States.  All rights reserved.
_database_code_ICSD                249694
_audit_creation_date               2009/02/01
_chemical_name_systematic
;
Tetrabarium Dipotassium Pentakis(tetrathiosquarate) Hexadecahydrate
;
_chemical_formula_structural       'Ba4 K2 (C4 S4)5 (H2 O)16'
_chemical_formula_sum              'C20 H32 Ba4 K2 O16 S20'
_publ_section_title
;
Earth alkaline tetrathiosquarates. II - Syntheses and crystal 
structures of Sr C4 S4 * 4 H2O and Ba4 K2 (C4 S4)5 * 16 H2O
;
loop_
_citation_id
_citation_journal_abbrev
_citation_year
_citation_journal_volume
_citation_journal_issue
_citation_page_first
_citation_page_last
_citation_journal_id_ASTM
primary 'Zeitschrift fuer Anorganische und Allgemeine Chemie (1950) (DE)'
 2008 634 9 1522 1526 ZAACAB
_publ_author_name                  'Beck, J.;Ben-Amer, Y.'
_cell_length_a                     15.875(3)
_cell_length_b                     21.325(5)
_cell_length_c                     16.119(1)
_cell_angle_alpha                  90.00
_cell_angle_beta                   90.00
_cell_angle_gamma                  90.00
_cell_volume                       5456.84
_cell_formula_units_Z              4
_symmetry_space_group_name_H-M     'P b c a'
_symmetry_Int_Tables_number        61
_refine_ls_R_factor_all            .0342
loop_
_symmetry_equiv_pos_site_id
_symmetry_equiv_pos_as_xyz
  1	'x+.5, y, -z+.5'
  2	'x, -y+.5, z+.5'
  3	'-x+.5, y+.5, z'
  4	'-x, -y, -z'
  5	'-x+.5, -y, z+.5'
  6	'-x, y+.5, -z+.5'
  7	'x+.5, -y+.5, -z'
  8	'x, y, z'
loop_
_atom_type_symbol
_atom_type_oxidation_number
Ba2+	2
C1.5+	1.5
H1+	1
K1+	1
O2-	-2
S2-	-2
loop_
_atom_site_label
_atom_site_type_symbol
_atom_site_symmetry_multiplicity
_atom_site_Wyckoff_symbol
_atom_site_fract_x
_atom_site_fract_y
_atom_site_fract_z
_atom_site_occupancy
_atom_site_attached_hydrogens
_atom_site_U_iso_or_equiv
Ba1 Ba2+ 8 c 0.317981(12) 0.319047(9) -0.235894(12 1 0 0.02625(6) 
Ba2 Ba2+ 8 c 0.157271(12) 0.497924(10) -0.271064(13 1 0 0.03000(6) 
K1 K1+ 8 c 0.15463(5) 0.14885(4) -0.26757(5) 1 0 0.0420(2) 
C1 C1.5+ 8 c -0.01024(19) 0.50875(14) -0.06140(17) 1 0 0.0231(6) 
C2 C1.5+ 8 c -0.06365(18) 0.50156(15) 0.01150(17) 1 0 0.0227(6) 
C3 C1.5+ 8 c 0.42894(18) 0.38064(15) -0.02119(17) 1 0 0.0230(6) 
C4 C1.5+ 8 c 0.48848(18) 0.40412(14) -0.08081(18) 1 0 0.0224(6) 
C5 C1.5+ 8 c 0.54650(19) 0.42124(14) -0.01527(18) 1 0 0.0240(6) 
C6 C1.5+ 8 c 0.01399(18) 0.60231(15) -0.45420(18) 1 0 0.0254(6) 
C7 C1.5+ 8 c 0.48296(19) 0.31098(15) -0.44724(18) 1 0 0.0260(7) 
C8 C1.5+ 8 c 0.41204(19) 0.18802(15) -0.00396(18) 1 0 0.0252(6) 
C9 C1.5+ 8 c 0.46862(18) 0.20277(14) -0.07214(18) 1 0 0.0231(6) 
C10 C1.5+ 8 c 0.53995(19) 0.20070(16) -0.01584(18) 1 0 0.0260(7) 
O1 O2- 8 c 0.2135(2) 0.23523(14) -0.15131(16) 1 0 0.0404(6) 
O2 O2- 8 c 0.31857(19) 0.21215(14) -0.33394(17) 1 0 0.0379(6) 
O3 O2- 8 c 0.1658(3) 0.3073(3) -0.3212(3) 1 0 0.0584(12) 
O4 O2- 8 c 0.30031(17) 0.42901(13) -0.33341(16) 1 0 0.0321(5) 
O5 O2- 8 c 0.17774(18) 0.38843(13) -0.17321(16) 1 0 0.0331(6) 
O6 O2- 8 c 0.3142(2) 0.50975(19) -0.18384(19) 1 0 0.0536(9) 
O7 O2- 8 c 0.18260(19) 0.60832(15) -0.18722(18) 1 0 0.0417(6) 
O8 O2- 8 c 0.25074(19) 0.57368(13) -0.37222(16) 1 0 0.0337(6) 
S1 S2- 8 c -0.02611(5) 0.52240(5) -0.16191(5) 1 0 0.0329(2) 
S2 S2- 8 c -0.16585(5) 0.50311(4) 0.02999(5) 1 0 0.0321(2) 
S3 S2- 8 c 0.33433(5) 0.34852(4) -0.02956(5) 1 0 0.03133(19) 
S4 S2- 8 c 0.48854(5) 0.41029(4) -0.18384(5) 1 0 0.03045(19) 
S5 S2- 8 c 0.64021(5) 0.45449(5) -0.01495(5) 1 0 0.0386(2) 
S6 S2- 8 c 0.01771(5) 0.60742(5) -0.35148(5) 1 0 0.0350(2) 
S7 S2- 8 c 0.49592(6) 0.31900(6) -0.34619(5) 1 0 0.0455(3) 
S8 S2- 8 c 0.31004(5) 0.17357(4) 0.00793(5) 1 0 0.0334(2) 
S9 S2- 8 c 0.46303(5) 0.21590(4) -0.17397(5) 1 0 0.03108(19) 
S10 S2- 8 c 0.64281(5) 0.20693(6) -0.02433(6) 1 0 0.0459(3) 
H1 H1+ 8 c 0.176(3) 0.251(3) -0.129(3) 1 0 0.072(19) 
H2 H1+ 8 c 0.247(4) 0.223(3) -0.110(4) 1 0 0.11(2) 
H3 H1+ 8 c 0.309(3) 0.222(2) -0.379(3) 1 0 0.044(13) 
H4 H1+ 8 c 0.361(3) 0.191(2) -0.339(3) 1 0 0.060(16) 
H5 H1+ 8 c 0.153(4) 0.270(4) -0.362(5) 1 0 0.12(3) 
H6 H1+ 8 c 0.149(5) 0.319(5) -0.325(6) 1 0 0.11(4) 
H7 H1+ 8 c 0.341(3) 0.447(2) -0.340(3) 1 0 0.057(16) 
H8 H1+ 8 c 0.299(3) 0.414(2) -0.380(3) 1 0 0.061(15) 
H9 H1+ 8 c 0.140(3) 0.370(2) -0.160(3) 1 0 0.055(16) 
H10 H1+ 8 c 0.189(3) 0.399(3) -0.128(4) 1 0 0.09(2) 
H11 H1+ 8 c 0.352(3) 0.498(2) -0.193(3) 1 0 0.047(16) 
H12 H1+ 8 c 0.311(3) 0.525(3) -0.129(4) 1 0 0.089(19) 
H13 H1+ 8 c 0.153(3) 0.639(3) -0.192(4) 1 0 0.075(19) 
H14 H1+ 8 c 0.188(3) 0.600(3) -0.136(4) 1 0 0.09(2) 
H15 H1+ 8 c 0.283(3) 0.557(2) -0.404(3) 1 0 0.044(12) 
H16 H1+ 8 c 0.222(3) 0.592(2) -0.397(3) 1 0 0.047(15) 

loop_
_atom_site_aniso_label
_atom_site_aniso_type_symbol
_atom_site_aniso_U_11
_atom_site_aniso_U_22
_atom_site_aniso_U_33
_atom_site_aniso_U_12
_atom_site_aniso_U_13
_atom_site_aniso_U_23
Ba1 Ba2+ 0.02124(10) 0.02757(11) 0.02993(11) -0.00008(7) -0.00083(7) 
0.00111(8)
Ba2 Ba2+ 0.02223(11) 0.02902(11) 0.03875(13) -0.00160(8) 0.00068(8) 
0.00310(8)
K1 K1+ 0.0335(4) 0.0513(5) 0.0411(5) 0.0012(4) -0.0014(3) -0.0098(4)
C1 C1.5+ 0.0212(15) 0.0315(17) 0.0165(13) -0.0025(12) 0.0011(11) 
-0.0006(12)
C2 C1.5+ 0.0202(14) 0.0320(17) 0.0160(13) -0.0011(12) 0.0016(11) 
-0.0002(12)
C3 C1.5+ 0.0226(15) 0.0283(16) 0.0181(14) -0.0022(12) 0.0002(11) 
-0.0008(12)
C4 C1.5+ 0.0216(14) 0.0256(15) 0.0200(14) -0.0022(12) 0.0004(11) 
-0.0012(11)
C5 C1.5+ 0.0231(15) 0.0293(17) 0.0195(14) -0.0026(13) 0.0021(11) 
-0.0013(12)
C6 C1.5+ 0.0219(15) 0.0321(18) 0.0222(15) -0.0012(13) -0.0007(11) 
0.0006(13)
C7 C1.5+ 0.0238(15) 0.0364(18) 0.0177(14) -0.0036(13) 0.0017(11) 
-0.0065(12)
C8 C1.5+ 0.0213(15) 0.0314(17) 0.0230(15) 0.0035(12) 0.0012(12) 0.0028(12)
C9 C1.5+ 0.0240(15) 0.0262(16) 0.0190(14) 0.0005(12) -0.0017(11) 0.0018(12)
C10 C1.5+ 0.0220(15) 0.0381(18) 0.0179(14) 0.0016(13) 0.0002(12) 0.0037(13)
O1 O2- 0.0483(17) 0.0405(16) 0.0325(14) 0.0031(13) 0.0064(13) -0.0013(12)
O2 O2- 0.0454(17) 0.0434(16) 0.0249(14) 0.0030(13) -0.0055(12) -0.0030(12)
O3 O2- 0.0340(17) 0.096(3) 0.0455(19) 0.0105(19) -0.0105(14) -0.0242(19)
O4 O2- 0.0350(15) 0.0359(14) 0.0253(13) -0.0011(11) 0.0009(11) 0.0002(11)
O5 O2- 0.0337(14) 0.0385(15) 0.0270(13) -0.0021(12) 0.0015(11) -0.0022(11)
O6 O2- 0.0284(16) 0.100(3) 0.0325(16) 0.0110(16) -0.0017(12) -0.0151(16)
O7 O2- 0.0552(18) 0.0406(17) 0.0292(15) 0.0039(14) 0.0034(12) -0.0045(12)
O8 O2- 0.0386(15) 0.0340(15) 0.0285(13) 0.0047(12) 0.0048(12) 0.0015(11)
S1 S2- 0.0267(4) 0.0557(6) 0.0162(4) 0.0000(4) -0.0012(3) 0.0035(4)
S2 S2- 0.0184(4) 0.0510(6) 0.0268(4) -0.0002(3) 0.0027(3) 0.0010(4)
S3 S2- 0.0260(4) 0.0458(5) 0.0222(4) -0.0128(4) 0.0007(3) -0.0015(4)
S4 S2- 0.0313(4) 0.0433(5) 0.0167(4) -0.0115(4) 0.0012(3) -0.0012(3)
S5 S2- 0.0264(4) 0.0611(6) 0.0281(4) -0.0175(4) 0.0002(3) -0.0048(4)
S6 S2- 0.0313(4) 0.0569(6) 0.0168(4) -0.0010(4) 0.0005(3) -0.0017(4)
S7 S2- 0.0291(5) 0.0892(8) 0.0181(4) -0.0123(5) 0.0019(3) -0.0126(4)
S8 S2- 0.0224(4) 0.0464(5) 0.0314(4) -0.0036(4) 0.0022(3) 0.0077(4)
S9 S2- 0.0299(4) 0.0465(5) 0.0168(3) 0.0058(4) -0.0021(3) 0.0050(3)
S10 S2- 0.0217(4) 0.0894(8) 0.0267(4) -0.0032(5) -0.0004(3) 0.0087(5)
#End of data_249694-ICSD


