data_59995-ICSD
#?2014 by Fachinformationszentrum Karlsruhe, and the U.S. Secretary of 
#Commerce on behalf of the United States.  All rights reserved.
_database_code_ICSD                59995
_audit_creation_date               2005/10/01
_chemical_name_systematic
;
Calcium Potassium Tris(oxalato)chromate(III) Pentahydrate
;
_chemical_formula_structural       'Ca K (Cr (C2 O4)3) (H2 O)5'
_chemical_formula_sum              'C6 H10 Ca1 Cr1 K1 O17'
_publ_section_title
;
Calcium potassium tris(oxalato-O1,O2)-chromate(III) pentahydrate
;
loop_
_citation_id
_citation_journal_abbrev
_citation_year
_citation_journal_volume
_citation_page_first
_citation_page_last
_citation_journal_id_ASTM
primary 'Acta Crystallographica, Section C: Crystal Structure Communications'
 1997 53 1576 1577 ACSCEE
_publ_author_name
;
Masters, V.;Gahan, L.R.;Kennard, C.H.L.
;
_cell_length_a                     10.923(4)
_cell_length_b                     11.1140(10)
_cell_length_c                     13.548(4)
_cell_angle_alpha                  90.00
_cell_angle_beta                   99.520(10)
_cell_angle_gamma                  90.00
_cell_volume                       1622.05
_cell_formula_units_Z              4
_symmetry_space_group_name_H-M     'P 1 21/n 1'
_symmetry_Int_Tables_number        14
_refine_ls_R_factor_all            .038
loop_
_symmetry_equiv_pos_site_id
_symmetry_equiv_pos_as_xyz
  1	'-x+.5, y+.5, -z+.5'
  2	'-x, -y, -z'
  3	'x+.5, -y+.5, z+.5'
  4	'x, y, z'
loop_
_atom_type_symbol
_atom_type_oxidation_number
C3+	3
Ca2+	2
Cr3+	3
H1+	1
K1+	1
O2-	-2
loop_
_atom_site_label
_atom_site_type_symbol
_atom_site_symmetry_multiplicity
_atom_site_Wyckoff_symbol
_atom_site_fract_x
_atom_site_fract_y
_atom_site_fract_z
_atom_site_occupancy
_atom_site_attached_hydrogens
_atom_site_U_iso_or_equiv
Cr1 Cr3+ 4 e -0.09514(4) 0.59296(4) 0.17664(3) 1 0 0.02144(14) 
O1 O2- 4 e -0.1623(2) 0.4559(2) 0.09279(15) 1 0 0.0293(4) 
C1 C3+ 4 e -0.0925(2) 0.3624(2) 0.1063(2) 1 0 0.0241(6) 
O2 O2- 4 e -0.1230(2) 0.2598(2) 0.08184(15) 1 0 0.0304(5) 
C2 C3+ 4 e 0.0413(2) 0.3878(2) 0.1582(2) 1 0 0.0230(6) 
O3 O2- 4 e 0.0583(2) 0.4955(2) 0.19161(15) 1 0 0.0282(4) 
O4 O2- 4 e 0.1185(2) 0.3085(2) 0.1631(2) 1 0 0.0316(5) 
O5 O2- 4 e -0.0132(2) 0.7234(2) 0.25975(14) 1 0 0.0291(4) 
C3 C3+ 4 e 0.0123(3) 0.8150(2) 0.2094(2) 1 0 0.0262(6) 
O6 O2- 4 e 0.0562(2) 0.9091(2) 0.2448(2) 1 0 0.0403(5) 
C4 C3+ 4 e -0.0166(2) 0.7992(2) 0.0955(2) 1 0 0.0251(6) 
O7 O2- 4 e -0.0556(2) 0.6949(2) 0.06654(14) 1 0 0.0289(4) 
O8 O2- 4 e -0.0014(2) 0.8849(2) 0.04190(15) 1 0 0.0313(5) 
O9 O2- 4 e -0.2593(2) 0.6688(2) 0.15700(14) 1 0 0.0276(4) 
C5 C3+ 4 e -0.3293(3) 0.6334(2) 0.2188(2) 1 0 0.0248(6) 
O10 O2- 4 e -0.4378(2) 0.6606(2) 0.21707(15) 1 0 0.0332(5) 
C6 C3+ 4 e -0.2646(2) 0.5482(2) 0.3015(2) 1 0 0.0241(6) 
O11 O2- 4 e -0.1543(2) 0.5181(2) 0.29245(14) 1 0 0.0280(4) 
O12 O2- 4 e -0.3211(2) 0.5151(2) 0.36762(14) 1 0 0.0316(5) 
Ca1 Ca2+ 4 e 0.03839(5) 0.09453(5) 0.14297(4) 1 0 0.0243(2) 
K1 K1+ 4 e 0.16309(8) 0.77571(8) 0.43553(7) 1 0 0.0555(2) 
O13 O2- 4 e 0.2042(2) 0.1121(2) 0.2900(2) 1 0 0.0497(6) 
H1 H1+ 4 e 0.2853 0.0769 0.3000 1 0 0.050 
H2 H1+ 4 e 0.2134 0.1573 0.3400 1 0 0.050 
O14 O2- 4 e 0.2304(2) 0.0510(2) 0.0792(2) 1 0 0.0488(6) 
H3 H1+ 4 e 0.2718 -0.0217 0.1000 1 0 0.050 
H4 H1+ 4 e 0.2189 0.0371 0.0000 1 0 0.050 
O15 O2- 4 e 0.1990(2) 0.3104(2) 0.4158(2) 1 0 0.0569(7) 
H5 H1+ 4 e 0.2492 0.2853 0.4800 1 0 0.050 
H6 H1+ 4 e 0.1152 0.3165 0.4400 1 0 0.050 
O16 O2- 4 e 0.0304(3) 0.6195(3) 0.5377(2) 1 0 0.0694(8) 
H7 H1+ 4 e 0.0711 0.5945 0.6000 1 0 0.050 
H8 H1+ 4 e -0.0374 0.5856 0.5600 1 0 0.050 
O17 O2- 4 e 0.1132(3) 1.0094(3) 0.4645(2) 1 0 0.0673(8) 
H9 H1+ 4 e 0.1807 1.0347 0.5200 1 0 0.050 
H10 H1+ 4 e 0.0628 1.0586 0.5000 1 0 0.050 

loop_
_atom_site_aniso_label
_atom_site_aniso_type_symbol
_atom_site_aniso_U_11
_atom_site_aniso_U_22
_atom_site_aniso_U_33
_atom_site_aniso_U_12
_atom_site_aniso_U_13
_atom_site_aniso_U_23
Cr1 Cr3+ 0.0236(2) 0.0178(2) 0.0245(2) -0.0001(2) 0.0086(2) 0.0026(2)
O1 O2- 0.0260(10) 0.0238(10) 0.0369(11) 0.0006(8) 0.0014(8) -0.0013(8)
C1 C3+ 0.0266(13) 0.0239(14) 0.0232(13) -0.0009(11) 0.0085(10) 0.0003(11)
O2 O2- 0.0328(11) 0.0241(10) 0.0343(11) -0.0028(8) 0.0052(8) -0.0050(8)
C2 C3+ 0.0244(13) 0.0217(13) 0.0248(13) -0.0007(11) 0.0095(10) 0.0011(11)
O3 O2- 0.0224(9) 0.0231(10) 0.0396(11) -0.0029(8) 0.0063(8) -0.0035(8)
O4 O2- 0.0288(10) 0.0260(11) 0.0403(12) 0.0039(9) 0.0065(8) -0.0014(9)
O5 O2- 0.0399(11) 0.0231(10) 0.0246(10) -0.0022(8) 0.0059(8) 0.0022(8)
C3 C3+ 0.0275(14) 0.0206(14) 0.0310(14) 0.0026(11) 0.0062(11) 0.0019(11)
O6 O2- 0.0573(14) 0.0240(11) 0.0368(12) -0.0086(10) -0.0001(10) -0.0012(9)
C4 C3+ 0.0253(13) 0.0230(14) 0.0299(14) 0.0027(11) 0.0130(11) 0.0022(11)
O7 O2- 0.0409(11) 0.0233(10) 0.0252(10) -0.0053(8) 0.0131(8) -0.0003(8)
O8 O2- 0.0433(12) 0.0221(10) 0.0326(11) 0.0025(9) 0.0190(9) 0.0056(8)
O9 O2- 0.0295(10) 0.0273(10) 0.0283(10) 0.0068(8) 0.0112(8) 0.0096(8)
C5 C3+ 0.0295(15) 0.0237(14) 0.0223(13) 0.0013(11) 0.0073(11) 0.0002(11)
O10 O2- 0.0266(10) 0.0418(12) 0.0331(11) 0.0087(9) 0.0101(8) 0.0100(9)
C6 C3+ 0.0256(13) 0.0222(14) 0.0253(14) -0.0014(11) 0.0066(11) 0.0018(11)
O11 O2- 0.0255(10) 0.0280(10) 0.0319(10) 0.0043(8) 0.0094(8) 0.0110(8)
O12 O2- 0.0322(10) 0.0343(11) 0.0313(11) 0.0049(9) 0.0141(9) 0.0116(9)
Ca1 Ca2+ 0.0260(3) 0.0204(3) 0.0287(3) -0.0008(2) 0.0110(2) -0.0016(2)
K1 K1+ 0.0531(5) 0.0559(5) 0.0555(5) 0.0041(4) 0.0031(4) -0.0027(4)
O13 O2- 0.0260(10) 0.0238(10) 0.0369(11) 0.0006(8) 0.0014(8) -0.0013(8)
O14 O2- 0.0399(11) 0.0231(10) 0.0246(10) -0.0022(8) 0.0059(8) 0.0022(8)
O15 O2- 0.0295(10) 0.0273(10) 0.0283(10) 0.0068(8) 0.0112(8) 0.0096(8)
O16 O2- 0.056(2) 0.099(2) 0.052(2) 0.014(2) 0.0071(13) 0.022(2)
O17 O2- 0.067(2) 0.074(2) 0.054(2) -0.004(2) -0.0119(13) 0.0050(15)
#End of data_59995-ICSD


