data_110688-ICSD
#?2014 by Fachinformationszentrum Karlsruhe, and the U.S. Secretary of 
#Commerce on behalf of the United States.  All rights reserved.
_database_code_ICSD                110688
_audit_creation_date               2008/08/01
_chemical_name_systematic
;
Methylammonium Tetrafluoroberyllolithiate Hydrate
;
_chemical_formula_structural       '((C H3) N H3) (Li Be F4) (H2 O)'
_chemical_formula_sum              'C1 H8 Be1 F4 Li1 N1 O1'
_publ_section_title
;
2-Dimensional sheet structures from linked metal fluoride tetrahedra
;
loop_
_citation_id
_citation_journal_abbrev
_citation_year
_citation_journal_volume
_citation_page_first
_citation_page_last
_citation_journal_id_ASTM
primary 'Journal of the Chemical Society, Dalton Transactions (2001-)'
 2002 2002 4402 4406 JCSDAA
_publ_author_name                  'Gerrard, L.A.;Weller, M.T.'
_cell_length_a                     12.567(3)
_cell_length_b                     4.8493(10)
_cell_length_c                     9.974(2)
_cell_angle_alpha                  90
_cell_angle_beta                   100.63(3)
_cell_angle_gamma                  90
_cell_volume                       597.4
_cell_formula_units_Z              4
_symmetry_space_group_name_H-M     'P 1 21/c 1'
_symmetry_Int_Tables_number        14
_refine_ls_R_factor_all            .0429
loop_
_symmetry_equiv_pos_site_id
_symmetry_equiv_pos_as_xyz
  1	'x, -y+.5, z+.5'
  2	'-x, -y, -z'
  3	'-x, y+.5, -z+.5'
  4	'x, y, z'
loop_
_atom_type_symbol
_atom_type_oxidation_number
Be2+	2
C4+	4
F1-	-1
H1-	-1
H1+	1
Li1+	1
N3-	-3
O2-	-2
loop_
_atom_site_label
_atom_site_type_symbol
_atom_site_symmetry_multiplicity
_atom_site_Wyckoff_symbol
_atom_site_fract_x
_atom_site_fract_y
_atom_site_fract_z
_atom_site_occupancy
_atom_site_attached_hydrogens
Li1 Li1+ 4 e 0.5040(3) 0.1843(8) 0.3524(4) 1. 0 
Be1 Be2+ 4 e 0.3701(3) -0.3083(6) 0.3732(3) 1. 0 
F1 F1- 4 e 0.46566(10) -0.1814(3) 0.31322(12) 1. 0 
F2 F1- 4 e 0.62774(11) 0.1982(3) 0.48290(13) 1. 0 
F3 F1- 4 e 0.38438(11) 0.3743(3) 0.38024(13) 1. 0 
F4 F1- 4 e 0.26372(11) -0.2445(3) 0.27336(13) 1. 0 
N1 N3- 4 e 0.2720(2) 0.2216(5) 0.1047(2) 1. 0 
H1 H1+ 4 e 0.281(3) 0.075(8) 0.152(3) 1. 0 
H2 H1+ 4 e 0.284(2) 0.363(6) 0.160(3) 1. 0 
H3 H1+ 4 e 0.324(3) 0.232(6) 0.057(3) 1. 0 
C1 C4+ 4 e 0.1621(3) 0.2404(7) 0.0199(3) 1. 0 
H4 H1- 4 e 0.150(3) 0.098(7) -0.050(3) 1. 0 
H5 H1- 4 e 0.106(3) 0.237(7) 0.066(4) 1. 0 
H6 H1- 4 e 0.161(2) 0.396(7) -0.043(3) 1. 0 
O1 O2- 4 e 0.9535(2) 0.2242(5) 0.2542(3) 1. 0 
H7 H1+ 4 e 0.892(4) 0.241(9) 0.232(5) 1. 0 
H8 H1+ 4 e 0.983(3) 0.384(9) 0.256(4) 1. 0 

#End of data_110688-ICSD


