data_165299-ICSD
#?2014 by Fachinformationszentrum Karlsruhe, and the U.S. Secretary of 
#Commerce on behalf of the United States.  All rights reserved.
_database_code_ICSD                165299
_audit_creation_date               2010/02/01
_chemical_name_systematic
;
Dipotassium Bis(dithiosquarato)niccolate Dihydrate
;
_chemical_formula_structural       'K2 (Ni (S2 C4 O2)2) (H2 O)2'
_chemical_formula_sum              'C8 H4 K2 Ni1 O6 S4'
_publ_section_title
;
Metal dithiosquarates. II. Synthesis and characterization of 
bis(dithiosquarato) tetrahedral and planar complexes. Crystal and 
molecular structure of potassium  bis(dithiosquarato)nickelate(II) 
dihydrate
;
loop_
_citation_id
_citation_journal_abbrev
_citation_year
_citation_journal_volume
_citation_journal_issue
_citation_page_first
_citation_page_last
_citation_journal_id_ASTM
primary 'Indian Mineralogist' 1975 14 11 2657 2665 INMLA2
_publ_author_name
;
Coucouvanis, D.;Holah, D.G.;Hollander, F.J.
;
_cell_length_a                     7.871(5)
_cell_length_b                     15.222(11)
_cell_length_c                     6.406(3)
_cell_angle_alpha                  90.
_cell_angle_beta                   95.58(3)
_cell_angle_gamma                  90.
_cell_volume                       763.88
_cell_formula_units_Z              2
_symmetry_space_group_name_H-M     'P 1 21/c 1'
_symmetry_Int_Tables_number        14
_refine_ls_R_factor_all            .018
loop_
_symmetry_equiv_pos_site_id
_symmetry_equiv_pos_as_xyz
  1	'x, -y+.5, z+.5'
  2	'-x, -y, -z'
  3	'-x, y+.5, -z+.5'
  4	'x, y, z'
loop_
_atom_type_symbol
_atom_type_oxidation_number
C1.5+	1.5
H1+	1
K1+	1
Ni2+	2
O2-	-2
S2-	-2
loop_
_atom_site_label
_atom_site_type_symbol
_atom_site_symmetry_multiplicity
_atom_site_Wyckoff_symbol
_atom_site_fract_x
_atom_site_fract_y
_atom_site_fract_z
_atom_site_occupancy
_atom_site_attached_hydrogens
_atom_site_B_iso_or_equiv
Ni1 Ni2+ 2 a 0 0 0 1. 0 0 
K1 K1+ 4 e 0.5552(1) 0.14783(5) -0.0104(1) 1. 0 0 
S1 S2- 4 e 0.1178(1) 0.12868(5) 0.1000(2) 1. 0 0 
S2 S2- 4 e 0.1119(1) -0.07098(5) 0.2818(2) 1. 0 0 
O1 O2- 4 e 0.4141(4) 0.1936(2) 0.5724(4) 1. 0 0 
O2 O2- 4 e 0.3955(3) -0.0022(2) 0.7554(4) 1. 0 0 
C1 C1.5+ 4 e 0.2228(4) 0.0979(2) 0.3321(6) 1. 0 0 
C2 C1.5+ 4 e 0.2176(4) 0.0123(2) 0.4108(6) 1. 0 0 
C3 C1.5+ 4 e 0.3301(4) 0.0349(2) 0.5983(7) 1. 0 0 
C4 C1.5+ 4 e 0.3377(4) 0.1270(2) 0.5129(6) 1. 0 0 
O3 O2- 4 e 0.7663(4) 0.2173(2) 0.3359(6) 1. 0 0 
H1 H1+ 4 e 0.89(1) 0.212(5) 0.29(1) 1. 0 13.7(24) 
H2 H1+ 4 e 0.787(7) 0.194(3) 0.430(8) 1. 0 4.9(15) 

loop_
_atom_site_aniso_label
_atom_site_aniso_type_symbol
_atom_site_aniso_B_11
_atom_site_aniso_B_22
_atom_site_aniso_B_33
_atom_site_aniso_B_12
_atom_site_aniso_B_13
_atom_site_aniso_B_23
Ni1 Ni2+ 2.56(3) 2.04(3) 2.50(4) -0.01(2) -0.21(2) 0.05(2)
K1 K1+ 4.60(5) 2.45(3) 3.24(5) 0.14(3) -0.38(4) 0.07(3)
S1 S2- 3.79(5) 2.32(4) 3.16(5) -0.33(3) -0.86(4) 0.37(3)
S2 S2- 3.81(4) 2.04(4) 3.04(5) -0.15(3) -0.52(4) 0.15(3)
O1 O2- 5.0(1) 2.9(1) 4.1(1) -1.1(1) -1.2(1) 0.1(1)
O2 O2- 4.1(1) 3.0(1) 3.2(2) 0.1(1) -0.7(1) 0.2(1)
C1 C1.5+ 2.5(1) 2.1(1) 3.2(2) 0.1(1) 0.2(1) 0.3(1)
C2 C1.5+ 2.4(1) 2.5(2) 2.7(2) 0.2(1) 0.1(1) -0.1(1)
C3 C1.5+ 2.6(2) 2.4(2) 2.7(2) 0.4(1) 0.1(2) 0.2(2)
C4 C1.5+ 2.4(2) 2.7(2) 2.8(2) -0.4(1) -0.1(2) -0.1(1)
O3 O2- 5.6(2) 3.7(1) 4.0(2) 0.4(1) -0.2(1) 0.8(1)
#End of data_165299-ICSD


