data_170463-ICSD
#?2014 by Fachinformationszentrum Karlsruhe, and the U.S. Secretary of 
#Commerce on behalf of the United States.  All rights reserved.
_database_code_ICSD                170463
_audit_creation_date               2006/04/01
_audit_update_record               2013/08/01
_chemical_name_systematic
;
Potassium Dihydrobis(3-nitro-1,2,4-triazolyl)borate
;
_chemical_formula_structural       'K (B H2 (C2 N3 H N O2)2)'
_chemical_formula_sum              'C4 H4 B1 K1 N8 O4'
_publ_section_title
;
The first nitro-substituted heteroscorpionate ligand
;
loop_
_citation_id
_citation_journal_abbrev
_citation_year
_citation_journal_volume
_citation_journal_issue
_citation_page_first
_citation_page_last
_citation_journal_id_ASTM
primary 'Inorganic Chemistry' 2005 44 4 846 848 INOCAJ
_publ_author_name
;
Pellei, M.;Benetollo, F.;Lobbia, G.G.;Alidori, S.;Santini, C.
;
_cell_length_a                     9.931(2)
_cell_length_b                     10.952(3)
_cell_length_c                     10.448(2)
_cell_angle_alpha                  90.00
_cell_angle_beta                   106.77(2)
_cell_angle_gamma                  90.00
_cell_volume                       1088.04
_cell_formula_units_Z              4
_symmetry_space_group_name_H-M     'P 1 21/a 1'
_symmetry_Int_Tables_number        14
_refine_ls_R_factor_all            .0456
loop_
_symmetry_equiv_pos_site_id
_symmetry_equiv_pos_as_xyz
  1	'x+.5, -y+.5, z'
  2	'-x, -y, -z'
  3	'-x+.5, y+.5, -z'
  4	'x, y, z'
loop_
_atom_type_symbol
_atom_type_oxidation_number
B3+	3
C4+	4
H1-	-1
K1+	1
N3-	-3
N5+	5
O2-	-2
loop_
_atom_site_label
_atom_site_type_symbol
_atom_site_symmetry_multiplicity
_atom_site_Wyckoff_symbol
_atom_site_fract_x
_atom_site_fract_y
_atom_site_fract_z
_atom_site_occupancy
_atom_site_attached_hydrogens
_atom_site_U_iso_or_equiv
K1 K1+ 4 e 0.44425(5) 0.12861(5) 0.19596(5) 1 0 0.04473(19) 
O1 O2- 4 e 0.2714(2) -0.18776(19) -0.14260(19) 1 0 0.0610(5) 
O2 O2- 4 e 0.3564(3) -0.0177(2) -0.0537(2) 1 0 0.0809(7) 
O3 O2- 4 e 0.5359(3) 0.2400(2) 0.4875(2) 1 0 0.0754(6) 
O4 O2- 4 e 0.5864(2) 0.1541(2) 0.6828(2) 1 0 0.0692(6) 
N1 N3- 4 e 0.1004(2) -0.0620(2) 0.17383(18) 1 0 0.0445(4) 
N2 N3- 4 e 0.1912(2) -0.02018(18) 0.10858(18) 1 0 0.0416(4) 
N3 N3- 4 e 0.1091(3) -0.2064(2) 0.0280(2) 1 0 0.0541(5) 
N4 N5+ 4 e 0.2782(2) -0.1047(2) -0.06358(19) 1 0 0.0469(5) 
N5 N3- 4 e 0.1937(2) 0.02976(18) 0.40662(17) 1 0 0.0424(4) 
N6 N3- 4 e 0.2962(2) 0.11128(18) 0.40596(18) 1 0 0.0433(4) 
N7 N3- 4 e 0.3486(2) 0.0152(2) 0.60583(19) 1 0 0.0518(5) 
N8 N5+ 4 e 0.5104(2) 0.1696(2) 0.5686(2) 1 0 0.0503(5) 
B1 B3+ 4 e 0.0603(3) 0.0130(3) 0.2851(3) 1 0 0.0527(7) 
C1 C4+ 4 e 0.0539(3) -0.1708(3) 0.1238(3) 1 0 0.0585(7) 
C2 C4+ 4 e 0.1903(2) -0.1110(2) 0.0253(2) 1 0 0.0399(5) 
C3 C4+ 4 e 0.2276(3) -0.0254(3) 0.5261(2) 1 0 0.0511(6) 
C4 C4+ 4 e 0.3831(2) 0.0980(2) 0.5265(2) 1 0 0.0399(5) 
H1 H1- 4 e -0.018(3) -0.045(3) 0.314(3) 1 0 0.059(8) 
H2 H1- 4 e -0.014(4) -0.214(3) 0.153(3) 1 0 0.078(10) 
H3 H1- 4 e 0.026(3) 0.105(3) 0.244(3) 1 0 0.064(9) 
H4 H1- 4 e 0.173(3) -0.085(3) 0.547(3) 1 0 0.072(10) 

loop_
_atom_site_aniso_label
_atom_site_aniso_type_symbol
_atom_site_aniso_U_11
_atom_site_aniso_U_22
_atom_site_aniso_U_33
_atom_site_aniso_U_12
_atom_site_aniso_U_13
_atom_site_aniso_U_23
K1 K1+ 0.0530(3) 0.0488(3) 0.0337(3) 0.0018(2) 0.0146(2) 0.00690(19)
O1 O2- 0.0650(12) 0.0677(12) 0.0560(11) -0.0014(9) 0.0266(9) -0.0213(9)
O2 O2- 0.0909(16) 0.0980(17) 0.0704(13) -0.0428(14) 0.0498(12) -0.0343(12)
O3 O2- 0.0856(15) 0.0642(13) 0.0745(14) -0.0174(11) 0.0199(12) 0.0052(11)
O4 O2- 0.0609(12) 0.0842(15) 0.0507(11) 0.0095(10) -0.0026(9) -0.0118(10)
N1 N3- 0.0457(10) 0.0568(12) 0.0317(9) -0.0029(9) 0.0122(7) -0.0038(8)
N2 N3- 0.0449(10) 0.0473(10) 0.0337(9) -0.0004(8) 0.0130(7) -0.0041(7)
N3 N3- 0.0737(14) 0.0523(12) 0.0395(10) -0.0144(10) 0.0215(10) -0.0081(9)
N4 N5+ 0.0441(10) 0.0598(12) 0.0371(9) -0.0024(9) 0.0122(8) -0.0079(8)
N5 N3- 0.0477(10) 0.0525(11) 0.0298(8) 0.0066(8) 0.0157(7) -0.0014(8)
N6 N3- 0.0545(11) 0.0462(10) 0.0301(8) 0.0051(8) 0.0135(8) 0.0016(7)
N7 N3- 0.0595(12) 0.0624(13) 0.0335(9) 0.0067(10) 0.0135(9) 0.0095(9)
N8 N5+ 0.0573(12) 0.0467(11) 0.0450(11) 0.0075(9) 0.0117(9) -0.0097(9)
B1 B3+ 0.0440(14) 0.076(2) 0.0394(13) 0.0047(13) 0.0140(11) -0.0106(13)
C1 C4+ 0.0730(17) 0.0665(17) 0.0410(12) -0.0247(14) 0.0247(12) -0.0088(11)
C2 C4+ 0.0420(11) 0.0476(12) 0.0287(9) 0.0001(9) 0.0082(8) -0.0031(8)
C3 C4+ 0.0574(14) 0.0608(15) 0.0393(12) 0.0041(12) 0.0205(10) 0.0066(11)
C4 C4+ 0.0480(12) 0.0433(11) 0.0289(9) 0.0119(9) 0.0119(8) -0.0006(8)
#End of data_170463-ICSD


