data_261905-ICSD
#?2014 by Fachinformationszentrum Karlsruhe, and the U.S. Secretary of 
#Commerce on behalf of the United States.  All rights reserved.
_database_code_ICSD                261905
_audit_creation_date               2012/02/01
_chemical_name_systematic
;
Calcium Bis(hydroxomethylphosphonate)
;
_chemical_formula_structural       'Ca ((C H3) P O3 H)2'
_chemical_formula_sum              'C2 H8 Ca1 O6 P2'
_publ_section_title
;
Charge-density distribution in hydrogen methylphosphonates of calcium 
and lithium
;
loop_
_citation_id
_citation_journal_abbrev
_citation_year
_citation_journal_volume
_citation_journal_issue
_citation_page_first
_citation_page_last
_citation_journal_id_ASTM
primary 'Acta Crystallographica, Section B: Structural Science'
 2011 67 5 399 408 ASBSDK
_publ_author_name                  'Mermer, A.;Starynowicz, P.'
_cell_length_a                     20.403(13)
_cell_length_b                     5.601(2)
_cell_length_c                     7.274(6)
_cell_angle_alpha                  90
_cell_angle_beta                   108.48(8)
_cell_angle_gamma                  90
_cell_volume                       788.39
_cell_formula_units_Z              4
_symmetry_space_group_name_H-M     'C 1 2/c 1'
_symmetry_Int_Tables_number        15
_refine_ls_R_factor_all            .012
loop_
_symmetry_equiv_pos_site_id
_symmetry_equiv_pos_as_xyz
  1	'x, -y, z+.5'
  2	'-x, -y, -z'
  3	'-x, y, -z+.5'
  4	'x, y, z'
  5	'x+.5, -y+.5, z+.5'
  6	'-x+.5, -y+.5, -z'
  7	'-x+.5, y+.5, -z+.5'
  8	'x+.5, y+.5, z'
loop_
_atom_type_symbol
_atom_type_oxidation_number
C2+	2
Ca2+	2
H1-	-1
H1+	1
O2-	-2
P5+	5
loop_
_atom_site_label
_atom_site_type_symbol
_atom_site_symmetry_multiplicity
_atom_site_Wyckoff_symbol
_atom_site_fract_x
_atom_site_fract_y
_atom_site_fract_z
_atom_site_occupancy
_atom_site_attached_hydrogens
_atom_site_U_iso_or_equiv
Ca1 Ca2+ 4 e 0.5 0.63148(2) 0.75 1 0 0.007 
P1 P5+ 8 f 0.398714(3) 0.175982(9) 0.552366(7) 1 0 0.006 
O1 O2- 8 f 0.384805(14) 0.28858(4) 0.73543(3) 1 0 0.012 
O2 O2- 8 f 0.454444(9) 0.32516(3) 0.51219(3) 1 0 0.009 
O3 O2- 8 f 0.415304(9) -0.08814(3) 0.57913(2) 1 0 0.008 
C1 C2+ 8 f 0.317876(11) 0.22111(4) 0.36616(3) 1 0 0.011 
H1 H1+ 8 f 0.401222 0.207098 0.86594 1 0 0.027 
H2 H1- 8 f 0.302093 0.406229 0.371456 1 0 0.034 
H3 H1- 8 f 0.323745 0.175292 0.226578 1 0 0.033 
H4 H1- 8 f 0.278267 0.109237 0.393638 1 0 0.037 

loop_
_atom_site_aniso_label
_atom_site_aniso_type_symbol
_atom_site_aniso_U_11
_atom_site_aniso_U_22
_atom_site_aniso_U_33
_atom_site_aniso_U_12
_atom_site_aniso_U_13
_atom_site_aniso_U_23
Ca1 Ca2+ 0.00965(2) 0.00515(4) 0.00528(5) 0 0.00257(3) 0
P1 P5+ 0.007951(17) 0.004638(16) 0.005466(18) -0.00007(1) 0.002267(13) 
0.000044(10)
O1 O2- 0.01999(9) 0.00950(6) 0.00723(6) 0.00456(6) 0.00590(6) 0.00029(5)
O2 O2- 0.00976(5) 0.00752(4) 0.00922(5) -0.00205(4) 0.00357(4) -0.00002(4)
O3 O2- 0.01210(5) 0.00522(4) 0.00847(5) 0.00084(3) 0.00372(4) 0.00043(3)
C1 C2+ 0.00965(2) 0.00515(4) 0.00528(5) 0 0.00257(3) 0
H1 H1+ 0.043056 0.024709 0.013725 0.009418 0.010645 0.00424
H2 H1- 0.034585 0.023067 0.037739 0.012466 0.002198 -0.00127
H3 H1- 0.032644 0.046922 0.016207 0.005089 0.005196 -0.005527
H4 H1- 0.020456 0.044803 0.043048 -0.009785 0.007733 0.009548
#End of data_261905-ICSD


