data_15416-ICSD
#?2014 by Fachinformationszentrum Karlsruhe, and the U.S. Secretary of 
#Commerce on behalf of the United States.  All rights reserved.
_database_code_ICSD                15416
_audit_creation_date               1980/01/01
_chemical_name_systematic
;
Potassium Bis(biuret)cuprate Tetrahydrate
;
_chemical_formula_structural
;
K2 Cu (N H C O N H C O N H)2 (H2 O)4
;
_chemical_formula_sum              'C4 H14 Cu1 K2 N6 O8'
_publ_section_title
;
Crystallographic studies of the biuret reaction. I. Potassium bis-
Biureto cuprate(II) tetrahydrate, K2 Cu (N H C O N H C O N H)2 (H2 
O)4
;
loop_
_citation_id
_citation_journal_abbrev
_citation_year
_citation_journal_volume
_citation_page_first
_citation_page_last
_citation_journal_id_ASTM
primary 'Acta Crystallographica (1,1948-23,1967)' 1961 14 407 418 ACCRA9
_publ_author_name
;
Freeman, H.C.;Smith, J.E.W.L.;Taylor, J.C.
;
_cell_length_a                     3.843(4)
_cell_length_b                     13.321(8)
_cell_length_c                     13.916(8)
_cell_angle_alpha                  90.
_cell_angle_beta                   94.08(25)
_cell_angle_gamma                  90.
_cell_volume                       710.59
_cell_formula_units_Z              2
_symmetry_space_group_name_H-M     'P 1 21/n 1'
_symmetry_Int_Tables_number        14
_refine_ls_R_factor_all            .079
loop_
_symmetry_equiv_pos_site_id
_symmetry_equiv_pos_as_xyz
  1	'-x+.5, y+.5, -z+.5'
  2	'-x, -y, -z'
  3	'x+.5, -y+.5, z+.5'
  4	'x, y, z'
loop_
_atom_type_symbol
_atom_type_oxidation_number
C4+	4
Cu2+	2
H1+	1
K1+	1
N3-	-3
O2-	-2
loop_
_atom_site_label
_atom_site_type_symbol
_atom_site_symmetry_multiplicity
_atom_site_Wyckoff_symbol
_atom_site_fract_x
_atom_site_fract_y
_atom_site_fract_z
_atom_site_occupancy
_atom_site_attached_hydrogens
_atom_site_B_iso_or_equiv
C1 C4+ 4 e 0.3882(17) 0.1301(5) 0.1469(6) 1. 0 0 
C2 C4+ 4 e 0.0968(16) 0.2226(4) 0.0021(6) 1. 0 0 
N1 N3- 4 e 0.2800(16) 0.0396(4) 0.1146(5) 1. 0 0 
N2 N3- 4 e 0.3034(15) 0.2123(4) 0.0893(5) 1. 0 0 
N3 N3- 4 e -.0251(15) 0.1386(4) -.0408(5) 1. 0 0 
O1 O2- 4 e 0.5557(14) 0.1477(4) 0.2251(4) 1. 0 0 
O2 O2- 4 e 0.0491(14) 0.3125(4) -.0272(4) 1. 0 0 
O3 O2- 4 e 0.9379(19) 0.4469(4) 0.1160(5) 1. 0 0 
O4 O2- 4 e 0.8621(17) 0.3259(5) 0.2786(5) 1. 0 0 
K1 K1+ 4 e 0.5503(4) 0.4030(1) -.1387(1) 1. 0 0 
Cu1 Cu2+ 2 a 0 0 0 1. 0 0 
H1 H1+ 4 e 0.32 -.01 0.17 1. 0 2.4 
H2 H1+ 4 e 0.395 0.274 0.117 1. 0 2.4 
H3 H1+ 4 e -.217 0.15 -.094 1. 0 2.4 
H4 H1+ 4 e 0.978 0.4 0.066 1. 0 2.4 
H5 H1+ 4 e 0.911 0.405 0.172 1. 0 2.4 
H6 H1+ 4 e 0.752 0.263 0.259 1. 0 2.4 
H7 H1+ 4 e 0.733 0.337 0.334 1. 0 2.4 

#End of data_15416-ICSD


