data_110379-ICSD
#?2014 by Fachinformationszentrum Karlsruhe, and the U.S. Secretary of 
#Commerce on behalf of the United States.  All rights reserved.
_database_code_ICSD                110379
_audit_creation_date               2008/08/01
_audit_update_record               2011/02/01
_chemical_name_systematic
;
Bis(tetramethylammonium) Diaquahexacyanolithiocobaltate
;
_chemical_formula_structural
;
((C H3)4 N)2 (Li Co (C N)6 (H2 O)2)
;
_chemical_formula_sum              'C14 H28 Co1 Li1 N8 O2'
_publ_section_title
;
Hydratisierte Cyanoelpasolithe: Bis(tetramethylammonium)-diaqua- 
lithium-hexacyano-metallate(III) des Mangans, Eisens und Cobalts
;
loop_
_citation_id
_citation_journal_abbrev
_citation_year
_citation_journal_volume
_citation_page_first
_citation_page_last
_citation_journal_id_ASTM
primary 'Zeitschrift fuer Naturforschung, B: Chemical Sciences'
 1988 43 1311 1318 ZNBSEN
_publ_author_name                  'Witzel, M.;Ziegler, B.;Babel, D.'
_cell_length_a                     17.046(6)
_cell_length_b                     8.732(2)
_cell_length_c                     16.161(5)
_cell_angle_alpha                  90
_cell_angle_beta                   119.40(3)
_cell_angle_gamma                  90
_cell_volume                       2095.7
_cell_formula_units_Z              4
_symmetry_space_group_name_H-M     'C 1 2/c 1'
_symmetry_Int_Tables_number        15
_refine_ls_R_factor_all            .031
loop_
_symmetry_equiv_pos_site_id
_symmetry_equiv_pos_as_xyz
  1	'x, -y, z+.5'
  2	'-x, -y, -z'
  3	'-x, y, -z+.5'
  4	'x, y, z'
  5	'x+.5, -y+.5, z+.5'
  6	'-x+.5, -y+.5, -z'
  7	'-x+.5, y+.5, -z+.5'
  8	'x+.5, y+.5, z'
loop_
_atom_type_symbol
_atom_type_oxidation_number
C2+	2
C4+	4
Co3+	3
H1-	-1
H1+	1
Li1+	1
N3-	-3
O2-	-2
loop_
_atom_site_label
_atom_site_type_symbol
_atom_site_symmetry_multiplicity
_atom_site_Wyckoff_symbol
_atom_site_fract_x
_atom_site_fract_y
_atom_site_fract_z
_atom_site_occupancy
_atom_site_attached_hydrogens
_atom_site_U_iso_or_equiv
Co1 Co3+ 4 c 0.25 0.25 0 1. 0 .0169(2) 
C1 C2+ 8 f 0.3160(1) 0.2761(2) -0.0647(1) 1. 0 .0248(10) 
N1 N3- 8 f 0.3565(2) 0.2877(3) -0.1035(2) 1. 0 .0470(13) 
C2 C2+ 8 f 0.3439(1) 0.1199(3) 0.0887(2) 1. 0 .0249(10) 
N2 N3- 8 f 0.4022(1) 0.0449(2) 0.1419(2) 1. 0 .0379(11) 
C3 C2+ 8 f 0.1904(2) 0.0792(3) -0.0801(2) 1. 0 .0266(11) 
N3 N3- 8 f 0.1549(2) -0.0215(3) -0.1296(2) 1. 0 .0477(13) 
N4 N3- 8 f 0.1216(1) 0.2452(3) 0.6135(1) 1. 0 .0360(9) 
C4 C4+ 8 f 0.0908(3) 0.2359(8) 0.5126(3) 1. 0 .105(4) 
H1 H1- 8 f 0.0282(3) 0.2772(8) 0.4762(3) 1. 0 .105 
H2 H1- 8 f 0.0914(3) 0.1265(8) 0.4944(3) 1. 0 .105 
H3 H1- 8 f 0.1317(3) 0.2974(8) 0.4975(3) 1. 0 .105 
C5 C4+ 8 f 0.0606(3) 0.1506(5) 0.6356(3) 1. 0 .070(2) 
H4 H1- 8 f 0.0814(3) 0.1565(5) 0.7051(3) 1. 0 .070 
H5 H1- 8 f 0.0620(3) 0.0416(5) 0.6174(3) 1. 0 .070 
H6 H1- 8 f -0.0023(3) 0.1907(5) 0.5989(3) 1. 0 .070 
C6 C4+ 8 f 0.2138(3) 0.1823(7) 0.6620(5) 1. 0 .119(4) 
H7 H1- 8 f 0.2385(3) 0.1860(7) 0.7323(5) 1. 0 .119 
H8 H1- 8 f 0.2529(3) 0.2446(7) 0.6447(5) 1. 0 .119 
H9 H1- 8 f 0.2126(3) 0.0737(7) 0.6417(5) 1. 0 .119 
C7 C4+ 8 f 0.1225(5) 0.4031(5) 0.6427(5) 1. 0 .133(6) 
H10 H1- 8 f 0.1439(5) 0.4067(5) 0.7124(5) 1. 0 .133 
H11 H1- 8 f 0.0603(5) 0.4465(5) 0.6071(5) 1. 0 .133 
H12 H1- 8 f 0.1639(5) 0.4647(5) 0.6285(5) 1. 0 .133 
Li1 Li1+ 4 e 0.5 0.4092(6) 0.25 1. 0 .026(2) 
O1 O2- 8 f 0.0646(1) 0.2543(3) 0.2207(1) 1. 0 .0382(8) 
H13 H1+ 8 f 0.0977(40) 0.2237(68) 0.2077(48) 1. 0 .14 
H14 H1+ 8 f 0.0901(40) -0.3187(75) 0.2679(48) 1. 0 .14 

#End of data_110379-ICSD


