data_109926-ICSD
#?2014 by Fachinformationszentrum Karlsruhe, and the U.S. Secretary of 
#Commerce on behalf of the United States.  All rights reserved.
_database_code_ICSD                109926
_audit_creation_date               2008/02/01
_chemical_name_systematic
;
Dipotassium Mue-oxo-dioxooxalatomolybdate Hydrate
;
_chemical_formula_structural       'K2 (O (Mo O2 (C2 O4))) (H2 O)'
_chemical_formula_sum              'C2 H2 K2 Mo1 O8'
_publ_section_title
;
The synthesis and structure of a new oxomolybdenum complex with 
oxalate as ligand
;
loop_
_citation_id
_citation_journal_abbrev
_citation_year
_citation_journal_volume
_citation_page_first
_citation_page_last
_citation_journal_id_ASTM
primary 'Synthesis and Reactivity in Inorganic and Metal-Organic Chemistry'
 1999 29 687 696 SRIMCN
_publ_author_name
;
Xing Yonghen;Xu Jiqing;Li Dongmei;Wang Renzhang;Huang Xiao Ying;Bu 
Weiming;Ye Ling;Yang Guangdi;Fan Yuguo
;
_cell_length_a                     7.544(1)
_cell_length_b                     12.767(3)
_cell_length_c                     8.710(4)
_cell_angle_alpha                  90
_cell_angle_beta                   95.10(2)
_cell_angle_gamma                  90
_cell_volume                       835.58
_cell_formula_units_Z              4
_symmetry_space_group_name_H-M     'P 1 21/a 1'
_symmetry_Int_Tables_number        14
_refine_ls_R_factor_all            .025
loop_
_symmetry_equiv_pos_site_id
_symmetry_equiv_pos_as_xyz
  1	'x+.5, -y+.5, z'
  2	'-x, -y, -z'
  3	'-x+.5, y+.5, -z'
  4	'x, y, z'
loop_
_atom_type_symbol
_atom_type_oxidation_number
C3+	3
H1+	1
K1+	1
Mo6+	6
O2-	-2
loop_
_atom_site_label
_atom_site_type_symbol
_atom_site_symmetry_multiplicity
_atom_site_Wyckoff_symbol
_atom_site_fract_x
_atom_site_fract_y
_atom_site_fract_z
_atom_site_occupancy
_atom_site_attached_hydrogens
Mo1 Mo6+ 4 e 0.05592(3) 0.76680(2) 0.05255(3) 1. 0 
O1 O2- 4 e 0.0838(3) 0.8150(2) -0.1881(3) 1. 0 
O2 O2- 4 e 0.0245(3) 0.6247(2) -0.0912(2) 1. 0 
O3 O2- 4 e 0.0976(6) 0.7593(2) -0.4286(4) 1. 0 
O4 O2- 4 e 0.0104(4) 0.5620(2) -0.3293(3) 1. 0 
O5 O2- 4 e -0.1797(3) 0.7813(2) 0.0204(3) 1. 0 
O6 O2- 4 e 0.0809(3) 0.6946(2) 0.2197(3) 1. 0 
O7 O2- 4 e 0.1229(3) 0.8920(2) 0.1077(3) 1. 0 
C1 C3+ 4 e 0.0771(5) 0.7451(3) -0.2921(4) 1. 0 
C2 C3+ 4 e 0.0353(4) 0.6332(2) -0.2362(4) 1. 0 
K1 K1+ 4 e -0.2290(1) 0.98641(6) 0.1377(1) 1. 0 
K2 K1+ 4 e 0.3190(1) 0.87646(7) 0.39444(9) 1. 0 
O8 O2- 4 e -0.1641(5) 0.9349(3) 0.4609(4) 1. 0 
H1 H1+ 4 e -0.069(7) 0.915(5) 0.474(7) 1. 0 
H2 H1+ 4 e -0.229(6) 0.874(4) 0.488(6) 1. 0 

#End of data_109926-ICSD


