data_170022-ICSD
#?2014 by Fachinformationszentrum Karlsruhe, and the U.S. Secretary of 
#Commerce on behalf of the United States.  All rights reserved.
_database_code_ICSD                170022
_audit_creation_date               2005/10/01
_chemical_name_systematic
;
Bis(trimethylamine) Aluminiumtrichloride
;
_chemical_formula_structural       '(Al Cl3 (C3 H9 N)2)'
_chemical_formula_sum              'C6 H18 Al1 Cl3 N2'
_publ_section_title
;
Bis-adduct of trimethylamine with aluminium trichloride
;
loop_
_citation_id
_citation_journal_abbrev
_citation_year
_citation_journal_volume
_citation_page_first
_citation_page_last
_citation_journal_id_ASTM
primary 'Acta Crystallographica, Section C: Crystal Structure Communications'
 1999 55 1797 1798 ACSCEE
_publ_author_name
;
Gelbrich, T.;Duemichen, U.;Sieler, J.
;
_cell_length_a                     9.645(8)
_cell_length_b                     9.994(2)
_cell_length_c                     12.918(6)
_cell_angle_alpha                  90.00
_cell_angle_beta                   90.00
_cell_angle_gamma                  90.00
_cell_volume                       1245.19
_cell_formula_units_Z              4
_symmetry_space_group_name_H-M     'P n m a'
_symmetry_Int_Tables_number        62
_refine_ls_R_factor_all            .026
loop_
_symmetry_equiv_pos_site_id
_symmetry_equiv_pos_as_xyz
  1	'x+.5, y, -z+.5'
  2	'x, -y+.5, z'
  3	'-x+.5, y+.5, z+.5'
  4	'-x, -y, -z'
  5	'-x+.5, -y, z+.5'
  6	'-x, y+.5, -z'
  7	'x+.5, -y+.5, -z+.5'
  8	'x, y, z'
loop_
_atom_type_symbol
_atom_type_oxidation_number
Al3+	3
C4+	4
Cl1-	-1
H1-	-1
N3-	-3
loop_
_atom_site_label
_atom_site_type_symbol
_atom_site_symmetry_multiplicity
_atom_site_Wyckoff_symbol
_atom_site_fract_x
_atom_site_fract_y
_atom_site_fract_z
_atom_site_occupancy
_atom_site_attached_hydrogens
_atom_site_U_iso_or_equiv
Al1 Al3+ 4 c 0.20521(4) 0.2500 0.02323(3) 1 0 0.02302(10) 
N1 N3- 4 c 0.03169(11) 0.2500 0.12869(8) 1 0 0.0270(2) 
N2 N3- 4 c 0.37630(13) 0.2500 -0.08541(8) 1 0 0.0332(2) 
Cl1 Cl1- 4 c 0.06061(4) 0.2500 -0.10522(2) 1 0 0.03899(10) 
Cl2 Cl1- 8 d 0.27989(2) 0.43618(2) 0.089765(17) 1 0 0.03131(8) 
C1 C4+ 8 d -0.05751(11) 0.12952(11) 0.11420(9) 1 0 0.0395(2) 
C2 C4+ 4 c 0.07751(16) 0.2500 0.23854(10) 1 0 0.0359(3) 
C3 C4+ 4 c 0.51353(16) 0.2500 -0.03267(14) 1 0 0.0427(3) 
C4 C4+ 8 d 0.37242(15) 0.37039(11) -0.15361(9) 1 0 0.0452(3) 
H1 H1- 4 c 0.0018(19) 0.2500 0.2829(15) 1 0 0.047(5) 
H2 H1- 8 d 0.1354(12) 0.1708(12) 0.2510(10) 1 0 0.043(3) 
H3 H1- 8 d -0.0086(14) 0.0495(15) 0.1242(12) 1 0 0.052(4) 
H4 H1- 8 d -0.0974(14) 0.1310(15) 0.0480(12) 1 0 0.054(4) 
H5 H1- 8 d -0.1351(13) 0.1327(15) 0.1621(11) 1 0 0.050(4) 
H6 H1- 4 c 0.588(2) 0.2500 -0.0793(15) 1 0 0.044(5) 
H7 H1- 8 d 0.5215(13) 0.1713(15) 0.0078(10) 1 0 0.049(4) 
H8 H1- 8 d 0.3764(13) 0.4498(14) -0.1115(10) 1 0 0.045(4) 
H9 H1- 8 d 0.4437(14) 0.3691(15) -0.1986(11) 1 0 0.051(4) 
H10 H1- 8 d 0.2881(12) 0.3661(14) -0.1920(10) 1 0 0.040(3) 

loop_
_atom_site_aniso_label
_atom_site_aniso_type_symbol
_atom_site_aniso_U_11
_atom_site_aniso_U_22
_atom_site_aniso_U_33
_atom_site_aniso_U_12
_atom_site_aniso_U_13
_atom_site_aniso_U_23
Al1 Al3+ 0.02999(18) 0.01889(16) 0.02019(16) 0.000 -0.00153(12) 0.000
N1 N3- 0.0277(5) 0.0251(5) 0.0283(5) 0.000 0.0009(4) 0.000
N2 N3- 0.0475(6) 0.0241(5) 0.0279(5) 0.000 0.0111(4) 0.000
Cl1 Cl1- 0.0512(2) 0.03894(18) 0.02679(15) 0.000 -0.01406(13) 0.000
Cl2 Cl1- 0.03670(13) 0.02444(12) 0.03279(12) -0.00575(8) 0.00339(8) 
-0.00659(7)
C1 C4+ 0.0350(5) 0.0355(5) 0.0481(6) -0.0101(4) 0.0048(4) -0.0018(4)
C2 C4+ 0.0402(7) 0.0431(7) 0.0242(6) 0.000 0.0052(5) 0.000
C3 C4+ 0.0368(7) 0.0403(8) 0.0510(8) 0.000 0.0145(7) 0.000
C4 C4+ 0.0685(7) 0.0335(5) 0.0335(5) -0.0011(5) 0.0184(5) 0.0076(4)
#End of data_170022-ICSD


