data_26933-ICSD
#?2014 by Fachinformationszentrum Karlsruhe, and the U.S. Secretary of 
#Commerce on behalf of the United States.  All rights reserved.
_database_code_ICSD                26933
_audit_creation_date               1980/01/01
_audit_update_record               1998/06/29
_chemical_name_systematic          'Sodium Hydrogen Carbonate'
_chemical_formula_structural       'Na (H C O3)'
_chemical_formula_sum              'C1 H1 Na1 O3'
_chemical_name_mineral             Nahcolite
_publ_section_title
;
The Crystal Lattice of Sodium Bicarbonate, Na H C O3
;
loop_
_citation_id
_citation_journal_abbrev
_citation_year
_citation_journal_volume
_citation_page_first
_citation_page_last
_citation_journal_id_ASTM
primary 'Journal of Chemical Physics' 1933 1 634 639 JCPSA6
_publ_author_name                  'Zachariasen, W.H.'
_cell_length_a                     7.51(4)
_cell_length_b                     9.70(4)
_cell_length_c                     3.53(3)
_cell_angle_alpha                  90.
_cell_angle_beta                   93.32
_cell_angle_gamma                  90.
_cell_volume                       256.72
_cell_formula_units_Z              4
_symmetry_space_group_name_H-M     'P 1 21/n 1'
_symmetry_Int_Tables_number        14
loop_
_symmetry_equiv_pos_site_id
_symmetry_equiv_pos_as_xyz
  1	'-x+.5, y+.5, -z+.5'
  2	'-x, -y, -z'
  3	'x+.5, -y+.5, z+.5'
  4	'x, y, z'
loop_
_atom_type_symbol
_atom_type_oxidation_number
C4+	4
H1+	1
Na1+	1
O2-	-2
loop_
_atom_site_label
_atom_site_type_symbol
_atom_site_symmetry_multiplicity
_atom_site_Wyckoff_symbol
_atom_site_fract_x
_atom_site_fract_y
_atom_site_fract_z
_atom_site_occupancy
_atom_site_attached_hydrogens
Na1 Na1+ 4 e 0.278 0 0.708 1. 0 
C1 C4+ 4 e 0.069 0.236 0.314 1. 0 
O1 O2- 4 e 0.069 0.367 0.314 1. 0 
O2 O2- 4 e 0.2 0.169 0.183 1. 0 
O3 O2- 4 e 0.939 0.169 0.444 1. 0 
H1 H1+ 4 e 0.319 0.25 0.064 1. 0 

#End of data_26933-ICSD


