data_170021-ICSD
#?2014 by Fachinformationszentrum Karlsruhe, and the U.S. Secretary of 
#Commerce on behalf of the United States.  All rights reserved.
_database_code_ICSD                170021
_audit_creation_date               2005/10/01
_chemical_name_systematic
;
Yttrium Sodium Oxalate Tetrahydrate
;
_chemical_formula_structural       '(Y (H2 O)) Na (C2 O4)2 (H2 O)3'
_chemical_formula_sum              'C4 H8 Na1 O12 Y1'
_publ_section_title
;
Yttrium sodium oxalate tetrahydrate, [Y (H2 O)] Na (C2 O4)2.3H2 O
;
loop_
_citation_id
_citation_journal_abbrev
_citation_year
_citation_journal_volume
_citation_page_first
_citation_page_last
_citation_journal_id_ASTM
primary 'Acta Crystallographica, Section C: Crystal Structure Communications'
 1999 55 1760 1762 ACSCEE
_publ_author_name                  'Bataille, T.;Louer, D.'
_cell_length_a                     8.623(2)
_cell_length_b                     8.6310(8)
_cell_length_c                     14.896(3)
_cell_angle_alpha                  90.00
_cell_angle_beta                   102.848(9)
_cell_angle_gamma                  90.00
_cell_volume                       1080.88
_cell_formula_units_Z              4
_symmetry_space_group_name_H-M     'P 1 c 1'
_symmetry_Int_Tables_number        7
_refine_ls_R_factor_all            .115
loop_
_symmetry_equiv_pos_site_id
_symmetry_equiv_pos_as_xyz
  1	'x, -y, z+.5'
  2	'x, y, z'
loop_
_atom_type_symbol
_atom_type_oxidation_number
C3+	3
H1+	1
Na1+	1
O2-	-2
Y3+	3
loop_
_atom_site_label
_atom_site_type_symbol
_atom_site_symmetry_multiplicity
_atom_site_Wyckoff_symbol
_atom_site_fract_x
_atom_site_fract_y
_atom_site_fract_z
_atom_site_occupancy
_atom_site_attached_hydrogens
_atom_site_U_iso_or_equiv
Y1 Y3+ 2 a 0.66085(4) 0.40464(7) 0.23388(3) 1 0 0.01193(18) 
Y2 Y3+ 2 a 0.19055(4) 0.90541(7) 0.30436(3) 1 0 0.01216(18) 
Na1 Na1+ 2 a 0.9954(5) 0.6854(4) 0.0197(2) 1 0 0.0494(9) 
Na2 Na1+ 2 a 0.3028(3) 0.3747(3) 0.01884(19) 1 0 0.0309(6) 
O1 O2- 2 a 0.2543(9) 0.0964(6) -0.0248(4) 1 0 0.0245(17) 
O2 O2- 2 a 0.5994(8) 0.4071(5) 0.0639(4) 1 0 0.0163(13) 
O3 O2- 2 a 0.2690(7) 0.6551(6) 0.0006(4) 1 0 0.0396(13) 
O4 O2- 2 a 0.9853(7) 0.9696(7) 0.0270(3) 1 0 0.0348(12) 
O5 O2- 2 a 0.7081(7) 0.6971(6) 0.0133(3) 1 0 0.0330(11) 
O6 O2- 2 a 0.0305(7) 0.4033(7) 0.0372(4) 1 0 0.0421(13) 
O7 O2- 2 a 0.5389(7) 0.9532(6) 0.0816(3) 1 0 0.0304(11) 
O8 O2- 2 a 0.7004(6) 0.1634(6) -0.0431(3) 1 0 0.0298(11) 
O9 O2- 2 a 0.4153(5) 0.2815(5) 0.1747(3) 1 0 0.0209(9) 
O10 O2- 2 a 0.2352(5) 0.1100(5) 0.2026(3) 1 0 0.0205(9) 
C1 C3+ 2 a 0.3688(8) 0.1792(7) 0.2219(4) 1 0 0.0170(12) 
O11 O2- 2 a 0.6152(5) 0.1963(5) 0.3298(3) 1 0 0.0178(8) 
O12 O2- 2 a 0.4376(5) -0.0296(5) -0.1396(3) 1 0 0.0207(9) 
C2 C3+ 2 a 0.4841(8) 0.1314(7) 0.3118(4) 1 0 0.0163(12) 
O13 O2- 2 a 0.0679(5) 0.6981(5) 0.2004(3) 1 0 0.0185(9) 
O14 O2- 2 a 0.8802(5) 0.5165(5) 0.1805(3) 1 0 0.0213(9) 
C3 C3+ 2 a 0.9582(7) 0.6263(6) 0.2235(4) 1 0 0.0140(11) 
O15 O2- 2 a 0.9961(5) 0.7745(5) 0.3625(3) 1 0 0.0221(9) 
O16 O2- 2 a 0.7834(5) 0.6203(5) 0.3277(3) 1 0 0.0217(10) 
C4 C3+ 2 a 0.9102(8) 0.6782(7) 0.3125(4) 1 0 0.0164(13) 
O17 O2- 2 a 0.7661(5) 0.1780(4) 0.1794(3) 1 0 0.0184(9) 
O18 O2- 2 a 0.9456(6) -0.0119(5) 0.2110(3) 1 0 0.0208(10) 
C5 C3+ 2 a 0.8865(8) 0.1160(7) 0.2282(4) 1 0 0.0156(11) 
O19 O2- 2 a 0.9087(5) 0.3184(5) 0.3394(3) 1 0 0.0185(9) 
O20 O2- 2 a 0.0984(5) 0.1380(5) 0.3596(3) 1 0 0.0229(10) 
C6 C3+ 2 a 0.9714(7) 0.1996(7) 0.3165(4) 1 0 0.0136(11) 
O21 O2- 2 a 0.3679(6) -0.1803(5) 0.2090(3) 1 0 0.0220(9) 
O22 O2- 2 a 0.5101(6) 0.6229(5) 0.1752(3) 1 0 0.0220(10) 
C7 C3+ 2 a 0.4339(7) 0.6896(7) 0.2255(4) 1 0 0.0160(12) 
O23 O2- 2 a 0.3348(6) 0.6766(5) 0.3630(3) 1 0 0.0200(9) 
O24 O2- 2 a 0.4955(6) 0.4875(5) 0.3352(3) 1 0 0.0201(9) 
C8 C3+ 2 a 0.4201(7) 0.6107(7) 0.3162(4) 1 0 0.0161(11) 
H1 H1+ 2 a 0.350(5) 0.038(8) -0.002(5) 1 0 0.038 
H2 H1+ 2 a 0.180(6) 0.071(8) 0.013(4) 1 0 0.038 
H3 H1+ 2 a 0.626(8) 0.322(4) 0.030(4) 1 0 0.024 
H4 H1+ 2 a 0.634(8) 0.502(3) 0.042(4) 1 0 0.024 
H5 H1+ 2 a 0.246(3) 0.699(9) -0.060(2) 1 0 0.060 
H6 H1+ 2 a 0.345(8) 0.723(8) 0.038(4) 1 0 0.060 
H7 H1+ 2 a 0.898(7) 1.024(9) -0.011(4) 1 0 0.053 
H8 H1+ 2 a 0.969(9) 0.966(10) 0.088(2) 1 0 0.053 
H9 H1+ 2 a 0.649(8) 0.763(8) 0.046(4) 1 0 0.050 
H10 H1+ 2 a 0.683(3) 0.734(8) -0.0494(18) 1 0 0.050 
H11 H1+ 2 a -0.009(3) 0.314(5) 0.001(4) 1 0 0.063 
H12 H1+ 2 a 0.053(3) 0.373(8) 0.1006(15) 1 0 0.063 
H13 H1+ 2 a 0.540(9) 0.883(7) 0.132(3) 1 0 0.047 
H14 H1+ 2 a 0.614(8) 1.034(6) 0.104(4) 1 0 0.047 
H15 H1+ 2 a 0.725(9) 0.230(7) -0.090(3) 1 0 0.045 
H16 H1+ 2 a 0.626(8) 0.088(7) -0.074(4) 1 0 0.045 

loop_
_atom_site_aniso_label
_atom_site_aniso_type_symbol
_atom_site_aniso_U_11
_atom_site_aniso_U_22
_atom_site_aniso_U_33
_atom_site_aniso_U_12
_atom_site_aniso_U_13
_atom_site_aniso_U_23
Y1 Y3+ 0.0109(5) 0.0101(4) 0.0151(4) 0.0001(3) 0.0035(3) -0.0005(3)
Y2 Y3+ 0.0108(5) 0.0104(4) 0.0154(4) -0.0001(3) 0.0031(3) 0.0008(3)
Na1 Na1+ 0.050(2) 0.054(2) 0.0417(18) 0.0213(18) 0.0042(16) -0.0042(17)
Na2 Na1+ 0.0346(16) 0.0313(15) 0.0260(13) 0.0067(12) 0.0046(12) -0.0007(11)
O1 O2- 0.028(4) 0.028(4) 0.019(3) 0.001(2) 0.008(3) 0.000(2)
O2 O2- 0.016(3) 0.014(3) 0.019(3) 0.000(2) 0.003(3) 0.0018(18)
O3 O2- 0.053(4) 0.034(3) 0.030(3) -0.002(3) 0.004(3) 0.005(2)
O4 O2- 0.037(3) 0.046(3) 0.023(2) 0.004(3) 0.012(2) 0.002(2)
O5 O2- 0.044(3) 0.035(3) 0.022(2) 0.007(2) 0.009(2) 0.007(2)
O6 O2- 0.046(3) 0.051(3) 0.030(3) -0.009(3) 0.010(2) -0.007(3)
O7 O2- 0.039(3) 0.028(2) 0.026(2) -0.005(2) 0.010(2) 0.0019(19)
O8 O2- 0.027(3) 0.040(3) 0.022(2) -0.006(2) 0.007(2) 0.002(2)
O9 O2- 0.022(2) 0.0165(19) 0.022(2) -0.0015(18) -0.0001(18) 0.0084(17)
O10 O2- 0.0158(19) 0.022(2) 0.022(2) -0.0063(18) 0.0015(16) 0.0001(18)
C1 C3+ 0.022(3) 0.012(3) 0.018(3) 0.001(2) 0.006(2) -0.001(2)
O11 O2- 0.0126(19) 0.020(2) 0.019(2) -0.0034(17) 0.0000(16) 0.0000(17)
O12 O2- 0.018(2) 0.022(2) 0.021(2) 0.0096(19) 0.0031(18) -0.0076(18)
C2 C3+ 0.014(3) 0.012(3) 0.022(3) -0.001(2) 0.003(2) 0.001(2)
O13 O2- 0.018(2) 0.020(2) 0.020(2) -0.0053(17) 0.0104(17) -0.0051(17)
O14 O2- 0.020(2) 0.024(2) 0.019(2) -0.0103(19) 0.0047(18) -0.0079(18)
C3 C3+ 0.019(3) 0.008(3) 0.015(3) 0.003(2) 0.004(2) -0.0005(18)
O15 O2- 0.025(2) 0.024(2) 0.018(2) -0.0095(19) 0.0054(18) -0.0096(18)
O16 O2- 0.022(2) 0.021(2) 0.025(2) -0.0054(17) 0.0116(18) -0.0062(17)
C4 C3+ 0.014(3) 0.017(3) 0.021(3) -0.001(2) 0.010(2) 0.003(2)
O17 O2- 0.018(2) 0.016(2) 0.018(2) 0.0064(17) -0.0029(17) -0.0031(15)
O18 O2- 0.024(2) 0.0128(19) 0.025(2) 0.0063(18) 0.0034(19) -0.0022(17)
C5 C3+ 0.018(3) 0.016(3) 0.014(2) 0.000(2) 0.005(2) -0.001(2)
O19 O2- 0.018(2) 0.019(2) 0.018(2) -0.0039(17) 0.0013(17) -0.0050(16)
O20 O2- 0.021(2) 0.020(2) 0.025(2) 0.0072(18) -0.0002(19) -0.0045(17)
C6 C3+ 0.020(3) 0.010(2) 0.010(2) 0.002(2) 0.003(2) 0.000(2)
O21 O2- 0.026(2) 0.017(2) 0.025(2) 0.0040(19) 0.010(2) 0.0037(18)
O22 O2- 0.027(2) 0.020(2) 0.022(2) 0.0089(18) 0.0115(19) 0.0042(16)
C7 C3+ 0.017(3) 0.016(3) 0.015(3) 0.003(2) 0.003(2) 0.000(2)
O23 O2- 0.027(2) 0.017(2) 0.019(2) 0.0061(17) 0.0127(19) 0.0035(16)
O24 O2- 0.022(2) 0.016(2) 0.023(2) 0.0068(18) 0.0062(19) 0.0054(18)
C8 C3+ 0.013(2) 0.015(3) 0.020(3) 0.001(2) 0.004(2) 0.002(2)
#End of data_170021-ICSD


