data_109959-ICSD
#?2014 by Fachinformationszentrum Karlsruhe, and the U.S. Secretary of 
#Commerce on behalf of the United States.  All rights reserved.
_database_code_ICSD                109959
_audit_creation_date               2008/02/01
_chemical_name_systematic
;
Trisodium Trioxalatoaluminate Pentahydrate
;
_chemical_formula_structural       'Na3 (Al (C2 O4)3) (H2 O)5'
_chemical_formula_sum              'C6 H10 Al1 Na3 O17'
_publ_section_title
;
Structure of sodium trisoxalato aluminate(III) pentahydrate and 
sodium trisoxalato chromate(III) pentahydrate
;
loop_
_citation_id
_citation_journal_abbrev
_citation_year
_citation_journal_volume
_citation_page_first
_citation_page_last
_citation_journal_id_ASTM
primary 'Documenta Chemica Yugoslavica. Vestnik Slovenskega Kemijskega Drustva'
 1982 29 211 225 VSKDAA
2 'Bulletin of the yugoslavian crystallographic centre, ser. A.'
 1976 11 41 44 BUYCC9
_publ_author_name                  'Bulc, N.;Golic, L.;Siftar, J.'
_cell_length_a                     17.127(3)
_cell_length_b                     12.456(2)
_cell_length_c                     15.243(2)
_cell_angle_alpha                  90
_cell_angle_beta                   99.92(1)
_cell_angle_gamma                  90
_cell_volume                       3203.23
_cell_formula_units_Z              8
_symmetry_space_group_name_H-M     'C 1 2/c 1'
_symmetry_Int_Tables_number        15
loop_
_symmetry_equiv_pos_site_id
_symmetry_equiv_pos_as_xyz
  1	'x, -y, z+.5'
  2	'-x, -y, -z'
  3	'-x, y, -z+.5'
  4	'x, y, z'
  5	'x+.5, -y+.5, z+.5'
  6	'-x+.5, -y+.5, -z'
  7	'-x+.5, y+.5, -z+.5'
  8	'x+.5, y+.5, z'
loop_
_atom_type_symbol
_atom_type_oxidation_number
Al3+	3
C3+	3
H1+	1
Na1+	1
O2-	-2
loop_
_atom_site_label
_atom_site_type_symbol
_atom_site_symmetry_multiplicity
_atom_site_Wyckoff_symbol
_atom_site_fract_x
_atom_site_fract_y
_atom_site_fract_z
_atom_site_occupancy
_atom_site_attached_hydrogens
Al1 Al3+ 8 f 0.30760 0.62910 0.26920 1. 0 
Na1 Na1+ 4 e 0.50000 -0.00660 0.25000 1. 0 
Na2 Na1+ 4 e 0.50000 0.26980 0.25000 1. 0 
Na3 Na1+ 8 f 0.45690 0.61270 0.49950 1. 0 
Na4 Na1+ 8 f 0.38170 0.87690 0.48480 1. 0 
O1 O2- 8 f 0.23600 0.59170 0.34590 1. 0 
O2 O2- 8 f 0.21450 0.67270 0.19040 1. 0 
O3 O2- 8 f 0.10600 0.59570 0.35160 1. 0 
O4 O2- 8 f 0.08210 0.65940 0.17480 1. 0 
O5 O2- 8 f 0.37090 0.68490 0.18870 1. 0 
O6 O2- 8 f 0.32930 0.76070 0.32830 1. 0 
O7 O2- 8 f 0.43360 0.83380 0.16140 1. 0 
O8 O2- 8 f 0.39480 0.91420 0.32090 1. 0 
O9 O2- 8 f 0.30150 0.49730 0.20680 1. 0 
O10 O2- 8 f 0.39380 0.56130 0.34530 1. 0 
O11 O2- 8 f 0.37080 0.34730 0.19610 1. 0 
O12 O2- 8 f 0.46870 0.41290 0.35220 1. 0 
O13 O2- 8 f 1.49390 0.20090 0.50230 1. 0 
O14 O2- 8 f 0.41540 0.43320 0.53390 1. 0 
O15 O2- 8 f 0.33700 0.69930 0.51820 1. 0 
O16 O2- 8 f 0.21260 0.50020 0.53080 1. 0 
O17 O2- 8 f 0.28280 0.34040 0.42910 1. 0 
C1 C3+ 8 f 0.16260 0.60810 0.31350 1. 0 
C2 C3+ 8 f 0.14910 0.64950 0.21720 1. 0 
C3 C3+ 8 f 0.39560 0.78110 0.20530 1. 0 
C4 C3+ 8 f 0.37220 0.82610 0.29180 1. 0 
C5 C3+ 8 f 0.35820 0.43180 0.23250 1. 0 
C6 C3+ 8 f 0.41370 0.46940 0.31780 1. 0 
H1 H1+ 8 f 1.46040 0.18820 0.44340 1. 0 
H2 H1+ 8 f 1.46440 0.17470 0.54850 1. 0 
H3 H1+ 8 f 0.41100 0.40190 0.59440 1. 0 
H4 H1+ 8 f 0.37000 0.40930 0.49140 1. 0 
H5 H1+ 8 f 0.33370 0.68090 0.58050 1. 0 
H6 H1+ 8 f 0.28170 0.67760 0.49340 1. 0 
H7 H1+ 8 f 0.23660 0.44630 0.49500 1. 0 
H8 H1+ 8 f 0.23640 0.50000 0.59440 1. 0 
H9 H1+ 8 f 0.26740 0.28220 0.38560 1. 0 
H10 H1+ 8 f 0.28680 0.40420 0.38600 1. 0 

#End of data_109959-ICSD


