data_246788-ICSD
#?2014 by Fachinformationszentrum Karlsruhe, and the U.S. Secretary of 
#Commerce on behalf of the United States.  All rights reserved.
_database_code_ICSD                246788
_audit_creation_date               2010/02/01
_audit_update_record               2012/02/01
_chemical_name_systematic          'Potassium Hydrogen Oxalate'
_chemical_formula_structural       'K H (C2 O4)'
_chemical_formula_sum              'C2 H1 K1 O4'
_publ_section_title
;
The crystal structure of potassium binoxalate
;
loop_
_citation_id
_citation_journal_abbrev
_citation_year
_citation_journal_volume
_citation_page_first
_citation_page_last
_citation_journal_id_ASTM
primary 'Acta Crystallographica B (24,1968-38,1982)' 1972 28 2194 2198 ACBCAR
_publ_author_name
;
Einspahr, H.;Marsh, R.E.;Donohue, J.
;
_cell_length_a                     4.3043(2)
_cell_length_b                     12.8334(2)
_cell_length_c                     7.6322(2)
_cell_angle_alpha                  90
_cell_angle_beta                   102.01(2)
_cell_angle_gamma                  90
_cell_volume                       412.37
_cell_formula_units_Z              4
_symmetry_space_group_name_H-M     'P 1 21/c 1'
_symmetry_Int_Tables_number        14
_refine_ls_R_factor_all            .027
loop_
_symmetry_equiv_pos_site_id
_symmetry_equiv_pos_as_xyz
  1	'x, -y+.5, z+.5'
  2	'-x, -y, -z'
  3	'-x, y+.5, -z+.5'
  4	'x, y, z'
loop_
_atom_type_symbol
_atom_type_oxidation_number
C3+	3
H1+	1
K1+	1
O2-	-2
loop_
_atom_site_label
_atom_site_type_symbol
_atom_site_symmetry_multiplicity
_atom_site_Wyckoff_symbol
_atom_site_fract_x
_atom_site_fract_y
_atom_site_fract_z
_atom_site_occupancy
_atom_site_attached_hydrogens
K1 K1+ 4 e 0.31310(6) 0.06917(2) 0.22748(3) 1. 0 
O1 O2- 4 e 1.20668(21) 0.43564(4) 0.35043(12) 1. 0 
O2 O2- 4 e 1.35885(20) 0.27013(7) 0.33318(12) 1. 0 
O3 O2- 4 e 0.74914(23) 0.40010(7) 0.04916(13) 1. 0 
O4 O2- 4 e 0.83928(20) 0.22947(7) 0.08711(12) 1. 0 
C1 C3+ 4 e 1.18102(23) 0.34712(8) 0.28604(13) 1. 0 
C2 C3+ 4 e 0.89823(24) 0.32766(8) 0.12652(14) 1. 0 
H1 H1+ 4 e 0.676(5) 0.225(1) -0.002(3) 1. 0 

loop_
_atom_site_aniso_label
_atom_site_aniso_type_symbol
_atom_site_aniso_U_11
_atom_site_aniso_U_22
_atom_site_aniso_U_33
_atom_site_aniso_U_12
_atom_site_aniso_U_13
_atom_site_aniso_U_23
K1 K1+ 0.03687(18) 0.00268(2) 0.01039(5) -0.00021(3) -0.0044(7) -0.00027(2)
O1 O2- 0.03496(46) 0.00286(5) 0.01085(16) -0.00036(11) -0.00453(21) 
-0.00078(6)
O2 O2- 0.03237(46) 0.00323(5) 0.01253(16) 0.00242(12) -0.00894(22) 
-0.0005(7)
O3 O2- 0.05418(64) 0.00294(5) 0.01459(19) 0.00215(14) -0.0154(28) 
-0.00003(8)
O4 O2- 0.02778(44) 0.00267(5) 0.01076(15) 0.00065(11) -0.00563(20) 
-0.00078(7)
C1 C3+ 0.02215(49) 0.00290(6) 0.00715(16) -0.00032(13) -0.00218(22) 
0.00021(7)
C2 C3+ 0.02483(50) 0.00278(6) 0.00795(16) 0.00068(14) -0.00303(23) 
-0.00032(8)
H1 H1+ 0.110(21) 0.001(1) 0.035(6) -0.004(4) 0.023(10) 0.000(2)
#End of data_246788-ICSD


