data_260200-ICSD
#?2014 by Fachinformationszentrum Karlsruhe, and the U.S. Secretary of 
#Commerce on behalf of the United States.  All rights reserved.
_database_code_ICSD                260200
_audit_creation_date               2009/08/01
_chemical_name_systematic
;
Poly(aqua-mue3-oxalurato-potassium(I))
;
_chemical_formula_structural       'K (C3 H3 N2 O4) (H2 O)'
_chemical_formula_sum              'C3 H5 K1 N2 O5'
_publ_section_title                'Potassium oxalurate monohydrate'
loop_
_citation_id
_citation_journal_abbrev
_citation_year
_citation_journal_volume
_citation_journal_issue
_citation_page_first
_citation_page_last
_citation_journal_id_ASTM
primary 'Acta Crystallographica, Section E. Structure Reports Online'
 2009 65 3 m308 m309 ACSEBH
_publ_author_name                  'Zhang Lianfeng'
_cell_length_a                     7.7313(17)
_cell_length_b                     12.799(3)
_cell_length_c                     6.9313(16)
_cell_angle_alpha                  90.00
_cell_angle_beta                   90.00
_cell_angle_gamma                  90.00
_cell_volume                       685.87
_cell_formula_units_Z              4
_symmetry_space_group_name_H-M     'P n n m'
_symmetry_Int_Tables_number        58
_refine_ls_R_factor_all            .0258
loop_
_symmetry_equiv_pos_site_id
_symmetry_equiv_pos_as_xyz
  1	'x+.5, -y+.5, z+.5'
  2	'-x+.5, y+.5, z+.5'
  3	'x, y, -z'
  4	'-x, -y, -z'
  5	'-x+.5, y+.5, -z+.5'
  6	'x+.5, -y+.5, -z+.5'
  7	'-x, -y, z'
  8	'x, y, z'
loop_
_atom_type_symbol
_atom_type_oxidation_number
C3.33+	3.33
H1+	1
K1+	1
N3-	-3
O2-	-2
loop_
_atom_site_label
_atom_site_type_symbol
_atom_site_symmetry_multiplicity
_atom_site_Wyckoff_symbol
_atom_site_fract_x
_atom_site_fract_y
_atom_site_fract_z
_atom_site_occupancy
_atom_site_attached_hydrogens
_atom_site_U_iso_or_equiv
K1 K1+ 4 f 1.0000 0.5000 0.24337(6) 1 0 0.0336(2) 
O1 O2- 4 g 0.89541(18) 0.34475(10) 0.0000 1 0 0.0329(4) 
O2 O2- 4 g 0.90620(19) 0.17010(11) 0.0000 1 0 0.0478(5) 
O3 O2- 4 g 0.55768(18) 0.16337(10) 0.0000 1 0 0.0349(4) 
O4 O2- 4 g 0.30509(18) 0.44721(10) 0.0000 1 0 0.0396(4) 
N1 N3- 4 g 0.5439(2) 0.34235(12) 0.0000 1 0 0.0278(4) 
H1 H1+ 4 g 0.6069 0.3977 0.0000 1 0 0.033 
N2 N3- 4 g 0.2646(2) 0.27328(14) 0.0000 1 0 0.0414(5) 
H2 H1+ 4 g 0.1538 0.2794 0.0000 1 0 0.050 
H3 H1+ 4 g 0.3111 0.2122 0.0000 1 0 0.050 
C1 C3.33+ 4 g 0.8300(3) 0.25554(15) 0.0000 1 0 0.0266(5) 
C2 C3.33+ 4 g 0.6290(2) 0.24914(14) 0.0000 1 0 0.0239(4) 
C3 C3.33+ 4 g 0.3632(2) 0.35754(14) 0.0000 1 0 0.0281(5) 
O5 O2- 4 g 0.7184(2) 0.46547(13) 0.5000 1 0 0.0490(5) 
H4 H1+ 4 g 0.6919 0.5284 0.5000 1 0 0.073 
H5 H1+ 4 g 0.6298 0.4287 0.5000 1 0 0.073 

loop_
_atom_site_aniso_label
_atom_site_aniso_type_symbol
_atom_site_aniso_U_11
_atom_site_aniso_U_22
_atom_site_aniso_U_33
_atom_site_aniso_U_12
_atom_site_aniso_U_13
_atom_site_aniso_U_23
K1 K1+ 0.0406(3) 0.0241(3) 0.0362(4) -0.00314(16) 0.000 0.000
O1 O2- 0.0213(7) 0.0206(7) 0.0567(10) -0.0038(5) 0.000 0.000
O2 O2- 0.0210(7) 0.0224(7) 0.0999(15) 0.0037(6) 0.000 0.000
O3 O2- 0.0226(7) 0.0171(7) 0.0650(11) -0.0027(6) 0.000 0.000
O4 O2- 0.0227(7) 0.0203(7) 0.0758(12) 0.0033(6) 0.000 0.000
N1 N3- 0.0175(8) 0.0165(8) 0.0493(11) -0.0020(6) 0.000 0.000
N2 N3- 0.0172(8) 0.0219(8) 0.0852(16) 0.0006(7) 0.000 0.000
C1 C3.33+ 0.0194(10) 0.0224(9) 0.0379(11) -0.0015(7) 0.000 0.000
C2 C3.33+ 0.0197(10) 0.0190(9) 0.0330(11) -0.0007(7) 0.000 0.000
C3 C3.33+ 0.0184(9) 0.0221(9) 0.0438(13) 0.0014(7) 0.000 0.000
O5 O2- 0.0247(8) 0.0271(8) 0.0952(14) 0.0024(7) 0.000 0.000
#End of data_260200-ICSD


