data_202347-ICSD
#?2014 by Fachinformationszentrum Karlsruhe, and the U.S. Secretary of 
#Commerce on behalf of the United States.  All rights reserved.
_database_code_ICSD                202347
_audit_creation_date               1988/12/19
_audit_update_record               2003/04/01
_chemical_name_systematic
;
Disodium Pentacyanonitrosoferrate(II) Dihydrate
;
_chemical_formula_structural       'Na2 (Fe (C N)5 (N O)) (H2 O)2'
_chemical_formula_sum              'C5 H4 Fe1 N6 Na2 O3'
_publ_section_title
;
Precision X-ray diffraction investigation of a crystal of sodium 
nitroprusside Na2 (Fe (C N)5 N O) (H2 O)2. Distribution of the 
electron density in the complex anion
;
loop_
_citation_id
_citation_journal_abbrev
_citation_year
_citation_journal_volume
_citation_page_first
_citation_page_last
_citation_journal_id_ASTM
primary 'Koordinatsionnaya Khimiya (= Coordination Chemistry (USSR))'
 1987 13 67 75 KOKHDC
_publ_author_name
;
Antipin, M.Yu.;Tsirel'son, V.G.;Flugge, M.P.;Struchkov, Yu.T.;Ozerov, 
R.P.
;
_cell_length_a                     6.1460(6)
_cell_length_b                     11.855(1)
_cell_length_c                     15.544(1)
_cell_angle_alpha                  90.
_cell_angle_beta                   90.
_cell_angle_gamma                  90.
_cell_volume                       1132.55
_cell_formula_units_Z              4
_symmetry_space_group_name_H-M     'P n n m'
_symmetry_Int_Tables_number        58
_refine_ls_R_factor_all            .0137
loop_
_symmetry_equiv_pos_site_id
_symmetry_equiv_pos_as_xyz
  1	'x+.5, -y+.5, z+.5'
  2	'-x+.5, y+.5, z+.5'
  3	'x, y, -z'
  4	'-x, -y, -z'
  5	'-x+.5, y+.5, -z+.5'
  6	'x+.5, -y+.5, -z+.5'
  7	'-x, -y, z'
  8	'x, y, z'
loop_
_atom_type_symbol
_atom_type_oxidation_number
C2+	2
Fe2+	2
H1+	1
N3-	-3
N3+	3
Na1+	1
O2-	-2
loop_
_atom_site_label
_atom_site_type_symbol
_atom_site_symmetry_multiplicity
_atom_site_Wyckoff_symbol
_atom_site_fract_x
_atom_site_fract_y
_atom_site_fract_z
_atom_site_occupancy
_atom_site_attached_hydrogens
_atom_site_B_iso_or_equiv
Fe1 Fe2+ 4 g 0.50042(3) 0.28011(1) 0.5 1. 0 0 
Na1 Na1+ 4 f 0.5 0 0.24574(2) 1. 0 0 
Na2 Na1+ 4 e 0 0 0.37804(2) 1. 0 0 
N1 N3+ 4 g 0.72576(9) 0.35815(5) 0.5 1. 0 0 
N2 N3- 4 g 0.10045(13) 0.12346(7) 0.5 1. 0 0 
N3 N3- 8 h 0.66729(9) 0.11962(5) 0.64190(3) 1. 0 0 
N4 N3- 8 h 0.24993(10) 0.40525(6) 0.35586(3) 1. 0 0 
O1 O2- 4 g 0.88542(13) 0.40547(8) 0.5 1. 0 0 
O2 O2- 8 h 0.17203(9) 0.12260(5) 0.26867(4) 1. 0 0 
C1 C2+ 4 g 0.25072(11) 0.18255(6) 0.5 1. 0 0 
C2 C2+ 8 h 0.60735(8) 0.17963(4) 0.58784(3) 1. 0 0 
C3 C2+ 8 h 0.34572(8) 0.36160(4) 0.41098(3) 1. 0 0 
H1 H1+ 8 h 0.1823 0.1993 0.2895 1. 0 4.5 
H2 H1+ 8 h 0.0682 0.1283 0.2221 1. 0 5. 

loop_
_atom_site_aniso_label
_atom_site_aniso_type_symbol
_atom_site_aniso_B_11
_atom_site_aniso_B_22
_atom_site_aniso_B_33
_atom_site_aniso_B_12
_atom_site_aniso_B_13
_atom_site_aniso_B_23
Fe1 Fe2+ 0.512(3) 0.572(4) 0.493(4) -.033(4) 0 0
Na1 Na1+ 1.03(1) 1.17(1) 0.85(1) -.21(1) 0 0
Na2 Na1+ 1.13(1) 1.37(1) 1.13(1) 0.09(2) 0 0
N1 N3+ 0.77(1) 0.84(1) 1.08(1) -.15(1) 0 0
N2 N3- 1.19(2) 1.47(2) 1.63(2) -.60(1) 0 0
N3 N3- 1.38(1) 1.59(1) 1.27(1) 0.22(1) 0.64(1) -.05(1)
N4 N3- 1.54(1) 2.14(2) 1.13(1) 0.47(1) 0.54(1) -.22(1)
O1 O2- 1.08(2) 1.70(2) 2.92(3) -.70(1) 0 0
O2 O2- 1.51(1) 1.63(1) 1.62(1) 0.13(1) 0.19(1) -.20(1)
C1 C2+ 0.88(1) 1.03(1) 0.97(1) -.24(1) 0 0
C2 C2+ 0.91(1) 1.03(1) 0.87(1) 0.07(1) 0.21(1) -.02(1)
C3 C2+ 0.98(1) 1.17(1) 0.79(1) 0.13(1) 0.16(1) -.05(1)
#End of data_202347-ICSD


