data_109925-ICSD
#?2014 by Fachinformationszentrum Karlsruhe, and the U.S. Secretary of 
#Commerce on behalf of the United States.  All rights reserved.
_database_code_ICSD                109925
_audit_creation_date               2008/02/01
_audit_update_record               2012/02/01
_chemical_name_systematic
;
Dipotassium Oxalatotrioxomolybdate Hydrate
;
_chemical_formula_structural       'K2 (Mo O3 (C2 O4)) (H2 O)'
_chemical_formula_sum              'C2 H2 K2 Mo1 O8'
_publ_section_title
;
Synthesis, structure and properties of molybdenum(VI) oxalate 
complexes of the types M2 (Mo2 O5 (C2 O4)2 (H2 O)2) and M2 (Mo O3 (C2 
O4)) (M= K, Rb, Cs), thermal behavior of La (H2 O)2 (C2 O4)2 * (H2 O) 
(M= K, N H4) studied by powder X-ray diffraction
;
loop_
_citation_id
_citation_journal_abbrev
_citation_year
_citation_journal_volume
_citation_page_first
_citation_page_last
_citation_journal_id_ASTM
primary 'Inorganica Chimica Acta' 2000 304 260 267 ICHAA3
_publ_author_name
;
Cindric, M.;Strukan, N.;Vrdoljak, V.;Devcic, M.;Veksli, Z.;Kamenar, 
B.
;
_cell_length_a                     7.556(2)
_cell_length_b                     12.756(5)
_cell_length_c                     8.705(1)
_cell_angle_alpha                  90
_cell_angle_beta                   95.12(1)
_cell_angle_gamma                  90
_cell_volume                       835.68
_cell_formula_units_Z              4
_symmetry_space_group_name_H-M     'P 1 21/a 1'
_symmetry_Int_Tables_number        14
_refine_ls_R_factor_all            .0424
loop_
_symmetry_equiv_pos_site_id
_symmetry_equiv_pos_as_xyz
  1	'x+.5, -y+.5, z'
  2	'-x, -y, -z'
  3	'-x+.5, y+.5, -z'
  4	'x, y, z'
loop_
_atom_type_symbol
_atom_type_oxidation_number
C3+	3
H1+	1
K1+	1
Mo6+	6
O2-	-2
loop_
_atom_site_label
_atom_site_type_symbol
_atom_site_symmetry_multiplicity
_atom_site_Wyckoff_symbol
_atom_site_fract_x
_atom_site_fract_y
_atom_site_fract_z
_atom_site_occupancy
_atom_site_attached_hydrogens
_atom_site_U_iso_or_equiv
Mo1 Mo6+ 4 e 0.94386(3) 0.76675(2) 0.44654(2) 1. 0 0.01328(14) 
K1 K1+ 4 e 1.22871(9) 0.98627(5) 0.36229(8) 1. 0 0.02578(18) 
K2 K1+ 4 e 0.68138(10) 0.87751(7) 0.10520(8) 1. 0 0.03079(19) 
O1 O2- 4 e 0.9199(3) 0.69406(19) 0.2792(3) 1. 0 0.0267(5) 
O2 O2- 4 e 0.9759(3) 0.62472(16) 0.5909(2) 1. 0 0.0195(4) 
O3 O2- 4 e 0.9152(3) 0.81533(16) 0.6874(2) 1. 0 0.0220(4) 
O4 O2- 4 e 1.1790(3) 0.78112(19) 0.4795(3) 1. 0 0.0236(4) 
O5 O2- 4 e 0.8770(3) 0.89249(16) 0.3909(3) 1. 0 0.0223(4) 
O6 O2- 4 e 0.9908(4) 0.56203(19) 0.8306(3) 1. 0 0.0331(5) 
O7 O2- 4 e 0.9040(6) 0.7596(3) 0.9294(3) 1. 0 0.0428(7) 
C1 C3+ 4 e 0.9650(4) 0.6336(2) 0.7358(3) 1. 0 0.0190(5) 
C2 C3+ 4 e 0.9223(4) 0.7453(2) 0.7915(4) 1. 0 0.0216(5) 
O8 O2- 4 e 1.1631(5) 0.9356(3) 0.0376(5) 1. 0 0.0509(8) 
H1 H1+ 4 e 1.098(12) 0.8983(72) 0.005(11) 1. 0 0.098(21) 
H2 H1+ 4 e 1.241(12) 0.8601(74) 0.0500(98) 1. 0 0.098(21) 

loop_
_atom_site_aniso_label
_atom_site_aniso_type_symbol
_atom_site_aniso_U_11
_atom_site_aniso_U_22
_atom_site_aniso_U_33
_atom_site_aniso_U_12
_atom_site_aniso_U_13
_atom_site_aniso_U_23
Mo1 Mo6+ 0.00900(17) 0.01528(19) 0.01592(18) 0.00019(6) 0.00311(10) 
0.00056(6)
K1 K1+ 0.0229(3) 0.0179(3) 0.0373(4) 0.0000(2) 0.0069(3) 0.0022(2)
K2 K1+ 0.0300(4) 0.0401(4) 0.0225(3) 0.0041(3) 0.0039(3) -0.0027(3)
O1 O2- 0.0297(11) 0.0305(12) 0.0209(10) -0.0043(9) 0.0083(8) -0.0057(9)
O2 O2- 0.0213(9) 0.0168(8) 0.0208(9) 0.0033(7) 0.0031(7) 0.0003(7)
O3 O2- 0.0291(11) 0.0163(9) 0.0208(9) 0.0039(8) 0.0044(8) 0.0000(7)
O4 O2- 0.0102(9) 0.0263(10) 0.0349(12) 0.0011(7) 0.0052(8) 0.0016(9)
O5 O2- 0.0210(9) 0.0183(9) 0.0277(10) 0.0018(8) 0.0021(8) 0.0049(7)
O6 O2- 0.0474(15) 0.0239(11) 0.0277(11) 0.0026(10) 0.0019(10) 0.0090(9)
O7 O2- 0.071(2) 0.0395(16) 0.0196(12) 0.0130(14) 0.0143(13) -0.0003(10)
C1 C3+ 0.0168(11) 0.0179(11) 0.0224(12) 0.0006(9) 0.0026(9) 0.0021(9)
C2 C3+ 0.0230(14) 0.0221(12) 0.0202(13) 0.0026(10) 0.0045(11) -0.0012(10)
O8 O2- 0.0362(15) 0.054(2) 0.062(2) 0.0015(15) -0.0015(14) -0.0112(17)
#End of data_109925-ICSD


