data_240729-ICSD
#?2014 by Fachinformationszentrum Karlsruhe, and the U.S. Secretary of 
#Commerce on behalf of the United States.  All rights reserved.
_database_code_ICSD                240729
_audit_creation_date               2007/04/01
_chemical_name_systematic
;
Poly(potassium Aquadi-mu-oxalato-neodymium(III) Dihydrate)
;
_chemical_formula_structural       'K (Nd (C2 O4)2 (H2 O)) (H2 O)2'
_chemical_formula_sum              'C4 H6 K1 Nd1 O11'
_publ_section_title
;
Poly[potassium aquadi-mu-oxalato-neodymium(III) dihydrate]
;
loop_
_citation_id
_citation_journal_abbrev
_citation_year
_citation_journal_volume
_citation_journal_issue
_citation_page_first
_citation_page_last
_citation_journal_id_ASTM
primary 'Acta Crystallographica, Section E. Structure Reports Online'
 2007 63 2 m312 313 ACSEBH
_publ_author_name                  'Liu, Y.-H.;Li, S.-Z.'
_cell_length_a                     23.085(5)
_cell_length_b                     7.4913(15)
_cell_length_c                     12.941(3)
_cell_angle_alpha                  90.00
_cell_angle_beta                   99.286(3)
_cell_angle_gamma                  90.00
_cell_volume                       2208.65
_cell_formula_units_Z              8
_symmetry_space_group_name_H-M     'C 1 2/c 1'
_symmetry_Int_Tables_number        15
_refine_ls_R_factor_all            .0701
loop_
_symmetry_equiv_pos_site_id
_symmetry_equiv_pos_as_xyz
  1	'x, -y, z+.5'
  2	'-x, -y, -z'
  3	'-x, y, -z+.5'
  4	'x, y, z'
  5	'x+.5, -y+.5, z+.5'
  6	'-x+.5, -y+.5, -z'
  7	'-x+.5, y+.5, -z+.5'
  8	'x+.5, y+.5, z'
loop_
_atom_type_symbol
_atom_type_oxidation_number
C3+	3
H1+	1
K1+	1
Nd3+	3
O2-	-2
loop_
_atom_site_label
_atom_site_type_symbol
_atom_site_symmetry_multiplicity
_atom_site_Wyckoff_symbol
_atom_site_fract_x
_atom_site_fract_y
_atom_site_fract_z
_atom_site_occupancy
_atom_site_attached_hydrogens
_atom_site_U_iso_or_equiv
K1 K1+ 8 f 0.58112(15) 0.0002(5) 0.8731(3) 1 0 0.0514(8) 
Nd1 Nd3+ 8 f 0.63733(2) 0.50022(9) 0.51386(4) 1 0 0.0146(2) 
O1 O2- 8 f 0.6605(4) 0.6607(13) 0.8570(6) 1 0 0.041(2) 
O2 O2- 8 f 0.6703(4) 0.6413(14) 0.6886(6) 1 0 0.043(2) 
O3 O2- 8 f 0.5968(4) 0.3623(11) 0.8388(6) 1 0 0.0281(19) 
O4 O2- 8 f 0.5991(3) 0.3587(10) 0.6656(6) 1 0 0.0237(18) 
O5 O2- 8 f 0.5450(3) 0.3412(10) 0.4542(5) 1 0 0.0166(16) 
O6 O2- 8 f 0.4498(3) 0.3272(10) 0.4646(6) 1 0 0.0197(17) 
O7 O2- 8 f 0.7464(4) 0.5266(11) 0.5259(8) 1 0 0.039(2) 
O8 O2- 8 f 0.8239(3) 0.6983(10) 0.5122(6) 1 0 0.0228(18) 
C1 C3+ 8 f 0.6510(5) 0.5883(18) 0.7694(8) 1 0 0.028(3) 
C2 C3+ 8 f 0.6122(5) 0.4200(14) 0.7579(8) 1 0 0.013(2) 
C3 C3+ 8 f 0.4985(5) 0.4023(14) 0.4762(7) 1 0 0.016(2) 
C4 C3+ 8 f 0.7703(4) 0.6689(15) 0.5105(8) 1 0 0.019(2) 
O9 O2- 8 f 0.6766(4) 0.2032(11) 0.5566(7) 1 0 0.032(2) 
H1 H1+ 8 f 0.6814 0.1433 0.6132 1 0 0.048 
H2 H1+ 8 f 0.6931 0.1499 0.5112 1 0 0.048 
O10 O2- 8 f 0.6910(5) 0.0106(15) 0.7359(8) 1 0 0.065(3) 
H3 H1+ 8 f 0.6846 -0.0992 0.7221 1 0 0.098 
H4 H1+ 8 f 0.7077 0.0156 0.7994 1 0 0.098 
O11 O2- 8 f 0.5418(4) 0.0093(14) 0.6535(8) 1 0 0.052(3) 
H5 H1+ 8 f 0.5548 -0.0801 0.6239 1 0 0.078 
H6 H1+ 8 f 0.5533 0.1042 0.6271 1 0 0.078 

loop_
_atom_site_aniso_label
_atom_site_aniso_type_symbol
_atom_site_aniso_U_11
_atom_site_aniso_U_22
_atom_site_aniso_U_33
_atom_site_aniso_U_12
_atom_site_aniso_U_13
_atom_site_aniso_U_23
K1 K1+ 0.061(2) 0.0327(16) 0.057(2) -0.0080(19) -0.0005(15) 0.0032(18)
Nd1 Nd3+ 0.0132(3) 0.0187(3) 0.0127(3) -0.0015(3) 0.00443(18) -0.0010(3)
O1 O2- 0.058(5) 0.049(5) 0.018(4) -0.033(5) 0.007(4) -0.007(4)
O2 O2- 0.048(5) 0.063(6) 0.019(4) -0.044(5) 0.008(4) -0.004(4)
O3 O2- 0.044(5) 0.027(4) 0.014(4) -0.007(4) 0.005(3) -0.002(3)
O4 O2- 0.031(4) 0.022(4) 0.019(4) -0.006(3) 0.008(3) 0.000(3)
O5 O2- 0.013(3) 0.017(4) 0.021(4) 0.004(3) 0.005(3) -0.001(3)
O6 O2- 0.012(4) 0.022(4) 0.026(4) -0.006(3) 0.006(3) -0.011(3)
O7 O2- 0.024(4) 0.016(4) 0.077(6) 0.001(4) 0.014(4) 0.011(4)
O8 O2- 0.014(4) 0.018(4) 0.036(4) -0.001(3) 0.003(3) -0.001(3)
C1 C3+ 0.026(6) 0.049(8) 0.010(6) -0.019(6) 0.005(5) 0.001(6)
C2 C3+ 0.016(5) 0.014(5) 0.009(5) 0.005(4) 0.000(4) 0.001(4)
C3 C3+ 0.023(6) 0.016(6) 0.009(6) -0.002(5) 0.007(5) -0.002(4)
C4 C3+ 0.018(6) 0.019(6) 0.020(6) -0.002(5) 0.009(4) 0.007(5)
O9 O2- 0.041(5) 0.025(4) 0.033(4) 0.013(4) 0.019(4) 0.012(4)
O10 O2- 0.086(7) 0.053(6) 0.051(6) 0.004(6) -0.009(5) 0.001(5)
O11 O2- 0.058(5) 0.046(5) 0.057(5) -0.006(5) 0.021(4) -0.014(5)
#End of data_240729-ICSD


