data_280482-ICSD
#?2014 by Fachinformationszentrum Karlsruhe, and the U.S. Secretary of 
#Commerce on behalf of the United States.  All rights reserved.
_database_code_ICSD                280482
_audit_creation_date               2002/04/01
_chemical_name_systematic
;
Disodium Tetracyanoniccolate Trihydrate
;
_chemical_formula_structural       'Na2 (Ni (C N)4) (H2 O)3'
_chemical_formula_sum              'C4 H6 N4 Na2 Ni1 O3'
_publ_section_title
;
Structure, charge and spin density in Na2 Ni (C N)4 * 3(H2 O) at 295 
and 30K
;
loop_
_citation_id
_citation_journal_abbrev
_citation_year
_citation_journal_volume
_citation_page_first
_citation_page_last
_citation_journal_id_ASTM
primary 'Acta Crystallographica, Section B: Structural Science'
 1998 54 600 612 ASBSDK
_publ_author_name
;
Ptasiewicz Bak, H.;Olovsson, I.;McIntyre, G.J.
;
_cell_length_a                     7.392(4)
_cell_length_b                     8.895(4)
_cell_length_c                     15.115(8)
_cell_angle_alpha                  89.12(2)
_cell_angle_beta                   87.46(2)
_cell_angle_gamma                  84.54(2)
_cell_volume                       988.3
_cell_formula_units_Z              4
_symmetry_space_group_name_H-M     'P -1'
_symmetry_Int_Tables_number        2
_refine_ls_R_factor_all            .0201
loop_
_symmetry_equiv_pos_site_id
_symmetry_equiv_pos_as_xyz
  1	'-x, -y, -z'
  2	'x, y, z'
loop_
_atom_type_symbol
_atom_type_oxidation_number
C2+	2
H1+	1
N3-	-3
Na1+	1
Ni2+	2
O2-	-2
loop_
_atom_site_label
_atom_site_type_symbol
_atom_site_symmetry_multiplicity
_atom_site_Wyckoff_symbol
_atom_site_fract_x
_atom_site_fract_y
_atom_site_fract_z
_atom_site_occupancy
_atom_site_attached_hydrogens
_atom_site_U_iso_or_equiv
Ni1 Ni2+ 2 i 0.24970(1) 0.51256(1) 0.48314(1) 1. 0 0.0264(1) 
Ni2 Ni2+ 2 i 0.25394(1) -.01231(1) 0.01321(1) 1. 0 0.0250(1) 
Na1 Na1+ 2 i 0.18941(4) 0.07415(3) 0.68896(2) 1. 0 0.0374(2) 
Na2 Na1+ 2 i 0.25563(4) 0.43323(3) 0.80818(2) 1. 0 0.0372(2) 
Na3 Na1+ 2 i 0.04946(4) 0.24224(3) 0.24378(2) 1. 0 0.0332(2) 
Na4 Na1+ 1 f 0.5 0 0.5 1. 0 0.0329(3) 
Na5 Na1+ 1 e 0.5 0.5 0 1. 0 0.0331(3) 
O1 O2- 2 i 0.46329(10) 0.60779(12) 0.85563(6) 1. 0 0.0387(4) 
O2 O2- 2 i 0.00258(10) 0.59016(6) 0.87990(9) 1. 0 0.0358(4) 
O3 O2- 2 i 0.44276(9) -.10864(12) 0.64507(6) 1. 0 0.0367(4) 
O4 O2- 2 i -.03014(11) -.07904(7) 0.63016(9) 1. 0 0.0415(5) 
O5 O2- 2 i 0.0078(3) 0.28290(8) 0.75693(5) 1. 0 0.0441(4) 
O6 O2- 2 i 0.4366(3) 0.22814(9) 0.73808(4) 1. 0 0.0433(4) 
C1 C2+ 2 i 0.23441(9) 0.31354(17) 0.51774(5) 1. 0 0.0307(4) 
C2 C2+ 2 i 0.26447(9) 0.45796(8) 0.36493(9) 1. 0 0.0305(4) 
C3 C2+ 2 i 0.22809(9) 0.56694(8) 0.60127(9) 1. 0 0.0304(4) 
C4 C2+ 2 i 0.27309(9) 0.71148(18) 0.45009(5) 1. 0 0.0320(4) 
C5 C2+ 2 i 0.28515(9) 0.18386(16) -.02287(5) 1. 0 0.0296(4) 
C6 C2+ 2 i 0.30867(9) 0.03306(8) 0.12814(7) 1. 0 0.0299(4) 
C7 C2+ 2 i 0.22599(9) -.21162(15) 0.04559(4) 1. 0 0.0299(4) 
C8 C2+ 2 i 0.19466(10) -.05388(7) -.10112(8) 1. 0 0.0300(4) 
N1 N3- 2 i 0.23119(9) 0.18898(19) 0.54128(5) 1. 0 0.0409(5) 
N2 N3- 2 i 0.26844(9) 0.42613(9) 0.29033(12) 1. 0 0.0429(5) 
N3 N3- 2 i 0.20945(10) 0.60120(9) 0.67498(11) 1. 0 0.0405(5) 
N4 N3- 2 i 0.29226(10) 0.8357(2) 0.42896(6) 1. 0 0.0463(5) 
N5 N3- 2 i 0.30592(10) 0.30540(18) -.04716(5) 1. 0 0.0398(4) 
N6 N3- 2 i 0.33890(9) 0.06284(9) 0.19990(9) 1. 0 0.0425(5) 
N7 N3- 2 i 0.20948(9) -.33646(17) 0.06340(5) 1. 0 0.0420(5) 
N8 N3- 2 i 0.15768(10) -.08089(9) -.17239(10) 1. 0 0.0412(5) 
H1 H1+ 2 i 0.57(3) 0.60(2) 0.813(14) 1. 0 0.024(4) 
H2 H1+ 2 i 0.42(4) 0.72(3) 0.850(18) 1. 0 0.045(4) 
H3 H1+ 2 i 0.04(3) 0.64(3) 0.933(16) 1. 0 0.036(4) 
H4 H1+ 2 i -.09(3) 0.52(2) 0.901(13) 1. 0 0.028(4) 
H5 H1+ 2 i 0.54(3) -.10(3) 0.689(16) 1. 0 0.032(4) 
H6 H1+ 2 i 0.40(3) -.21(3) 0.649(16) 1. 0 0.043(4) 
H7 H1+ 2 i -.13(3) 0.00(3) 0.616(16) 1. 0 0.040(4) 
H8 H1+ 2 i 0.01(4) -.13(4) 0.58(2) 1. 0 0.062(5) 
H9 H1+ 2 i -.08(4) 0.34(4) 0.72(2) 1. 0 0.071(5) 
H10 H1+ 2 i -.07(4) 0.25(4) 0.81(2) 1. 0 0.061(5) 
H11 H1+ 2 i 0.52(4) 0.25(3) 0.69(2) 1. 0 0.056(5) 
H12 H1+ 2 i 0.52(4) 0.17(4) 0.78(2) 1. 0 0.058(5) 

#End of data_280482-ICSD


