data_68710-ICSD
#?2014 by Fachinformationszentrum Karlsruhe, and the U.S. Secretary of 
#Commerce on behalf of the United States.  All rights reserved.
_database_code_ICSD                68710
_audit_creation_date               1992/01/20
_chemical_name_systematic
;
Potassium Nickel Hydrogenbis(carbonate) Tetrahydrate
;
_chemical_formula_structural       'K Ni (H (C O3)2) (H2 O)4'
_chemical_formula_sum              'C2 H9 K1 Ni1 O10'
_publ_section_title
;
Structure and electron density of nickel potassium 
hydrogenbiscarbonate tetrahydrate
;
loop_
_citation_id
_citation_journal_abbrev
_citation_year
_citation_journal_volume
_citation_page_first
_citation_page_last
_citation_journal_id_ASTM
primary 'Acta Crystallographica, Section B: Structural Science'
 1990 46 458 466 ASBSDK
_publ_author_name
;
Fernandes, N.G.;Tellgren, R.;Olovsson, I.
;
_cell_length_a                     5.3824(2)
_cell_length_b                     6.6737(2)
_cell_length_c                     6.9480(2)
_cell_angle_alpha                  115.881(2)
_cell_angle_beta                   90.678(2)
_cell_angle_gamma                  108.017(2)
_cell_volume                       210.36
_cell_formula_units_Z              1
_symmetry_space_group_name_H-M     'P -1'
_symmetry_Int_Tables_number        2
_refine_ls_R_factor_all            .029
loop_
_symmetry_equiv_pos_site_id
_symmetry_equiv_pos_as_xyz
  1	'-x, -y, -z'
  2	'x, y, z'
loop_
_atom_type_symbol
_atom_type_oxidation_number
C4+	4
H1+	1
K1+	1
Ni2+	2
O2-	-2
loop_
_atom_site_label
_atom_site_type_symbol
_atom_site_symmetry_multiplicity
_atom_site_Wyckoff_symbol
_atom_site_fract_x
_atom_site_fract_y
_atom_site_fract_z
_atom_site_occupancy
_atom_site_attached_hydrogens
Ni1 Ni2+ 1 h 0.5 0.5 0.5 1. 0 
K1 K1+ 1 a 0 0 0 1. 0 
O1 O2- 2 i 0.53498(11) 0.21697(8) 0.23439(7) 1. 0 
O2 O2- 2 i 0.86257(8) 0.73080(6) 0.49659(11) 1. 0 
O3 O2- 2 i 0.28775(8) 0.55872(9) 0.29576(7) 1. 0 
O4 O2- 2 i 0.60638(14) 0.8392(1) 0.25084(7) 1. 0 
O5 O2- 2 i 0.20226(26) 0.67491(20) 0.05540(16) 1. 0 
C1 C4+ 2 i 0.37233(15) 0.69139(7) 0.20511(13) 1. 0 
H1 H1+ 2 i 0.658(4) 0.259(2) 0.114(4) 1. 0 
H2 H1+ 2 i 0.588(2) 0.073(4) 0.253(2) 1. 0 
H3 H1+ 2 i 1.011(5) 0.651(3) 0.411(3) 1. 0 
H4 H1+ 2 i 0.801(3) 0.804(3) 0.393(3) 1. 0 
H5 H1+ 1 c 0 0.5 0 1. 0 

#End of data_68710-ICSD


