data_250496-ICSD
#?2014 by Fachinformationszentrum Karlsruhe, and the U.S. Secretary of 
#Commerce on behalf of the United States.  All rights reserved.
_database_code_ICSD                250496
_audit_creation_date               2014/08/01
_chemical_name_systematic
;
Sodium Formate Dihydrate - Hp Phase
;
_chemical_formula_structural       'Na (H C O2) (H2 O)2'
_chemical_formula_sum              'C1 H5 Na1 O4'
_publ_section_title
;
A new high pressure phase of sodium formate dihydrate; an 
experimental and computational study
;
loop_
_citation_id
_citation_journal_abbrev
_citation_year
_citation_journal_volume
_citation_journal_issue
_citation_page_first
_citation_page_last
_citation_journal_id_ASTM
primary 'Dalton Transactions' 2007 2007 20 2014 2019 DTARAF
_publ_author_name
;
Walker, Martin;Morrison, Carole A.;Allan, David R.;Pulham, Colin 
R.;Marshall, William G.
;
_cell_length_a                     7.6852(9)
_cell_length_b                     3.5113(3)
_cell_length_c                     8.1103(17)
_cell_angle_alpha                  90
_cell_angle_beta                   111.780(14)
_cell_angle_gamma                  90
_cell_volume                       203.23
_cell_formula_units_Z              2
_symmetry_space_group_name_H-M     'P 1 21 1'
_symmetry_Int_Tables_number        4
_refine_ls_R_factor_all            .0827
loop_
_symmetry_equiv_pos_site_id
_symmetry_equiv_pos_as_xyz
  1	'-x, y+.5, -z'
  2	'x, y, z'
loop_
_atom_type_symbol
_atom_type_oxidation_number
C4+	4
H1-	-1
H1+	1
Na1+	1
O2-	-2
loop_
_atom_site_label
_atom_site_type_symbol
_atom_site_symmetry_multiplicity
_atom_site_Wyckoff_symbol
_atom_site_fract_x
_atom_site_fract_y
_atom_site_fract_z
_atom_site_occupancy
_atom_site_attached_hydrogens
_atom_site_U_iso_or_equiv
Na1 Na1+ 2 a 0.1830(16) 0.296(3) 0.642(3) 1.0000 0 0.027(2) 
C1 C4+ 2 a 0.081(3) 0.317(6) 0.211(5) 1.0000 0 0.015(4) 
H1 H1- 2 a 0.0280 0.5008 0.1074 1.0000 0 0.0500 
O1 O2- 2 a 0.014(3) 0.291(4) 0.330(4) 1.0000 0 0.021(3) 
O2 O2- 2 a 0.241(3) 0.114(5) 0.246(6) 1.0000 0 0.034(4) 
O3 O2- 2 a 0.336(3) 0.318(5) 0.949(5) 1.0000 0 0.055(4) 
O4 O2- 2 a 0.376(3) 0.823(4) 0.605(5) 1.0000 0 0.033(4) 
H2 H1+ 2 a 0.3366 0.9222 0.4946 1.0000 0 0.0400 
H3 H1+ 2 a 0.4986 0.7645 0.6571 1.0000 0 0.0400 
H4 H1+ 2 a 0.3015 0.2379 1.0372 1.0000 0 0.0685 
H5 H1+ 2 a 0.4332 0.4809 0.9737 1.0000 0 0.0685 

#End of data_250496-ICSD


