data_245276-ICSD
#?2014 by Fachinformationszentrum Karlsruhe, and the U.S. Secretary of 
#Commerce on behalf of the United States.  All rights reserved.
_database_code_ICSD                245276
_audit_creation_date               2008/02/01
_chemical_name_systematic
;
Poly(octaaquatetra-mue-oxalato-calciumdipotassiumzirconate(IV) 
Octahydrate)
;
_chemical_formula_structural       '(Ca K2 Zr (C2 O4)4 (H2 O)8)'
_chemical_formula_sum              'C8 H16 Ca1 K2 O24 Zr1'
_publ_section_title
;
Calcium dipotassium tetraoxalatozirconate(IV) octahydrate
;
loop_
_citation_id
_citation_journal_abbrev
_citation_year
_citation_journal_volume
_citation_journal_issue
_citation_page_first
_citation_page_last
_citation_journal_id_ASTM
primary 'Acta Crystallographica, Section E. Structure Reports Online'
 2006 62 10 m2424 m2426 ACSEBH
_publ_author_name
;
Yang Junying;Fu Yunlong;Ren Jia-Lin;Ng Seik Weng
;
_cell_length_a                     11.342
_cell_length_b                     11.342
_cell_length_c                     8.9200(10)
_cell_angle_alpha                  90.00
_cell_angle_beta                   90.00
_cell_angle_gamma                  90.00
_cell_volume                       1147.48
_cell_formula_units_Z              2
_symmetry_space_group_name_H-M     'I -4'
_symmetry_Int_Tables_number        82
_refine_ls_R_factor_all            .037
loop_
_symmetry_equiv_pos_site_id
_symmetry_equiv_pos_as_xyz
  1	'-y, x, -z'
  2	'y, -x, -z'
  3	'-x, -y, z'
  4	'x, y, z'
  5	'-y+.5, x+.5, -z+.5'
  6	'y+.5, -x+.5, -z+.5'
  7	'-x+.5, -y+.5, z+.5'
  8	'x+.5, y+.5, z+.5'
loop_
_atom_type_symbol
_atom_type_oxidation_number
C3+	3
Ca2+	2
H1+	1
K1+	1
O2-	-2
Zr4+	4
loop_
_atom_site_label
_atom_site_type_symbol
_atom_site_symmetry_multiplicity
_atom_site_Wyckoff_symbol
_atom_site_fract_x
_atom_site_fract_y
_atom_site_fract_z
_atom_site_occupancy
_atom_site_attached_hydrogens
_atom_site_U_iso_or_equiv
Zr1 Zr4+ 2 a 1.0000 1.0000 0.0000 1 0 0.01056(17) 
Ca1 Ca2+ 2 d 0.5000 1.0000 0.2500 1 0 0.0136(4) 
K1 K1+ 2 b 1.0000 1.0000 0.5000 1 0 0.0343(4) 
K2 K1+ 2 c 0.5000 1.0000 -0.2500 1 0 0.0262(5) 
O1 O2- 8 g 0.8908(2) 1.0048(2) 0.2084(3) 1 0 0.0221(6) 
O2 O2- 8 g 0.8145(2) 0.9963(2) -0.0618(3) 1 0 0.0234(6) 
O3 O2- 8 g 0.7077(2) 1.0040(2) 0.3035(3) 1 0 0.0255(7) 
O4 O2- 8 g 0.6264(2) 0.9891(2) 0.0179(4) 1 0 0.0264(7) 
O5 O2- 8 g 0.7946(3) 1.1433(3) 0.5421(3) 1 0 0.0550(10) 
O6 O2- 8 g 0.6431(3) 1.2079(3) -0.2090(4) 1 0 0.0560(10) 
C1 C3+ 8 g 0.7799(3) 1.0019(3) 0.1995(4) 1 0 0.0173(7) 
C2 C3+ 8 g 0.7334(3) 0.9952(3) 0.0376(4) 1 0 0.0196(8) 
H1 H1+ 8 g 0.7353 1.1095 0.5028 1 0 0.050 
H2 H1+ 8 g 0.7824 1.1529 0.6354 1 0 0.050 
H3 H1+ 8 g 0.6474 1.2242 -0.1162 1 0 0.050 
H4 H1+ 8 g 0.6122 1.2654 -0.2557 1 0 0.050 

loop_
_atom_site_aniso_label
_atom_site_aniso_type_symbol
_atom_site_aniso_U_11
_atom_site_aniso_U_22
_atom_site_aniso_U_33
_atom_site_aniso_U_12
_atom_site_aniso_U_13
_atom_site_aniso_U_23
Zr1 Zr4+ 0.0109(2) 0.0109(2) 0.0098(3) 0.000 0.000 0.000
Ca1 Ca2+ 0.0120(5) 0.0120(5) 0.0167(9) 0.000 0.000 0.000
K1 K1+ 0.0404(6) 0.0404(6) 0.0222(7) 0.000 0.000 0.000
K2 K1+ 0.0303(8) 0.0303(8) 0.0180(10) 0.000 0.000 0.000
O1 O2- 0.0120(10) 0.035(2) 0.0190(10) -0.0010(10) 0.00020(10) -0.0010(10)
O2 O2- 0.0170(10) 0.039(2) 0.0150(10) 0.0010(10) -0.0010(10) -0.0010(10)
O3 O2- 0.0140(10) 0.044(2) 0.0180(10) -0.0010(10) -0.0010(10) -0.0030(10)
O4 O2- 0.0120(10) 0.045(2) 0.022(2) 0.0000(10) -0.0020(10) -0.0010(10)
O5 O2- 0.040(2) 0.083(3) 0.042(2) -0.011(2) -0.006(2) -0.014(2)
O6 O2- 0.081(3) 0.043(2) 0.045(2) 0.009(2) -0.019(2) 0.005(2)
C1 C3+ 0.016(2) 0.019(2) 0.017(2) -0.0010(10) -0.0010(10) 0.002(2)
C2 C3+ 0.021(2) 0.019(2) 0.019(2) -0.001(2) -0.0010(10) -0.0030(10)
#End of data_245276-ICSD


