data_110574-ICSD
#?2014 by Fachinformationszentrum Karlsruhe, and the U.S. Secretary of 
#Commerce on behalf of the United States.  All rights reserved.
_database_code_ICSD                110574
_audit_creation_date               2008/08/01
_chemical_name_systematic
;
Dimethylammonium Bis(phosphato(V))fluorodialuminate
;
_chemical_formula_structural       '((C H3)2 N H2) (Al2 F (P O4)2)'
_chemical_formula_sum              'C2 H8 Al2 F1 N1 O8 P2'
_publ_section_title
;
Tripling of the unit cell volume of the non centro-symmetric AlPO4-
SOD after dehydration. A structural study of a reversible process.
;
loop_
_citation_id
_citation_journal_abbrev
_citation_year
_citation_journal_volume
_citation_page_first
_citation_page_last
_citation_journal_id_ASTM
primary 'Journal of Physical Chemistry B' 2005 109 11893 11899 JPCBFK
_publ_author_name
;
Paillaud, J.L.;Marichal, C.;Roux, M.;Baerlocher, C.;Chezeau, J.M.
;
_cell_length_a                     9.4049(7)
_cell_length_b                     12.7739(10)
_cell_length_c                     8.5805(6)
_cell_angle_alpha                  90
_cell_angle_beta                   112.796(7)
_cell_angle_gamma                  90
_cell_volume                       950.32
_cell_formula_units_Z              4
_symmetry_space_group_name_H-M     'P 1 21/c 1'
_symmetry_Int_Tables_number        14
_refine_ls_R_factor_all            .0328
loop_
_symmetry_equiv_pos_site_id
_symmetry_equiv_pos_as_xyz
  1	'x, -y+.5, z+.5'
  2	'-x, -y, -z'
  3	'-x, y+.5, -z+.5'
  4	'x, y, z'
loop_
_atom_type_symbol
_atom_type_oxidation_number
Al3+	3
C4+	4
F1-	-1
H1-	-1
H1+	1
N3-	-3
O2-	-2
P5+	5
loop_
_atom_site_label
_atom_site_type_symbol
_atom_site_symmetry_multiplicity
_atom_site_Wyckoff_symbol
_atom_site_fract_x
_atom_site_fract_y
_atom_site_fract_z
_atom_site_occupancy
_atom_site_attached_hydrogens
Al1 Al3+ 4 e 0.43610 0.09890 0.40840 1. 0 
Al2 Al3+ 4 e 0.12630 0.38230 0.18030 1. 0 
P1 P5+ 4 e 0.21590 -0.04990 0.48180 1. 0 
P2 P5+ 4 e 0.29410 0.21120 0.04700 1. 0 
F1 F1- 4 e 0.48870 -0.03650 0.36630 1. 0 
O1 O2- 4 e 0.38000 0.14670 0.19410 1. 0 
O2 O2- 4 e 0.40580 0.27580 0.00540 1. 0 
O3 O2- 4 e 0.16900 0.28010 0.07580 1. 0 
O4 O2- 4 e 0.23770 0.03290 0.36920 1. 0 
O5 O2- 4 e 0.34660 -0.12500 0.53760 1. 0 
O6 O2- 4 e 0.06680 -0.11200 0.37540 1. 0 
O7 O2- 4 e 0.19880 -0.00300 0.63790 1. 0 
O8 O2- 4 e 0.20350 0.14080 -0.10450 1. 0 
N1 N3- 4 e 0.29050 0.84140 0.09310 1. 0 
C1 C4+ 4 e 0.12450 0.86740 0.01660 1. 0 
C2 C4+ 4 e 0.37860 0.89910 0.01380 1. 0 
H1 H1+ 4 e 0.30900 0.75480 0.09030 1. 0 
H2 H1+ 4 e 0.33850 0.85840 0.23210 1. 0 
H3 H1- 4 e 0.37210 0.85700 -0.08570 1. 0 
H4 H1- 4 e 0.06110 0.81270 0.06350 1. 0 
H5 H1- 4 e 0.32170 0.97110 -0.00730 1. 0 
H6 H1- 4 e 0.09720 0.86580 -0.10510 1. 0 
H7 H1- 4 e 0.49400 0.90690 0.11000 1. 0 
H8 H1- 4 e 0.11900 0.94300 0.07060 1. 0 

#End of data_110574-ICSD


