data_249195-ICSD
#?2014 by Fachinformationszentrum Karlsruhe, and the U.S. Secretary of 
#Commerce on behalf of the United States.  All rights reserved.
_database_code_ICSD                249195
_audit_creation_date               2008/02/01
_chemical_name_systematic          'Trimagnesium Hexaformate'
_chemical_formula_structural       '(Mg3 (O2 C H)6)'
_chemical_formula_sum              'C6 H6 Mg3 O12'
_publ_section_title
;
Synthesis, structural characterization, gas sorption and guest-
exchange studies of the lightweight, porous metal-organic framework 
alpha-[Mg3 (O2 C H)6]]
;
loop_
_citation_id
_citation_journal_abbrev
_citation_year
_citation_journal_volume
_citation_journal_issue
_citation_page_first
_citation_page_last
_citation_journal_id_ASTM
primary 'Inorganic Chemistry Communications' 2006 45 14 5521 5528 ICCOFP
_publ_author_name
;
Rood, J.A.;Noll, B.C.;Henderson, K.W.
;
_cell_length_a                     11.324(2)
_cell_length_b                     9.847(2)
_cell_length_c                     14.623(3)
_cell_angle_alpha                  90.00
_cell_angle_beta                   91.15(3)
_cell_angle_gamma                  90.00
_cell_volume                       1630.24
_cell_formula_units_Z              4
_symmetry_space_group_name_H-M     'P 1 21/n 1'
_symmetry_Int_Tables_number        14
_refine_ls_R_factor_all            .0341
loop_
_symmetry_equiv_pos_site_id
_symmetry_equiv_pos_as_xyz
  1	'-x+.5, y+.5, -z+.5'
  2	'-x, -y, -z'
  3	'x+.5, -y+.5, z+.5'
  4	'x, y, z'
loop_
_atom_type_symbol
_atom_type_oxidation_number
C2+	2
H1+	1
Mg2+	2
O2-	-2
loop_
_atom_site_label
_atom_site_type_symbol
_atom_site_symmetry_multiplicity
_atom_site_Wyckoff_symbol
_atom_site_fract_x
_atom_site_fract_y
_atom_site_fract_z
_atom_site_occupancy
_atom_site_attached_hydrogens
_atom_site_U_iso_or_equiv
Mg1 Mg2+ 4 e 0.25629(3) 0.42168(3) 0.63470(2) 1 0 0.00843(7) 
Mg2 Mg2+ 2 d 0.0000 0.5000 0.5000 1 0 0.00984(10) 
Mg3 Mg2+ 4 e 0.26038(3) 0.11201(3) 0.69024(2) 1 0 0.00906(7) 
Mg4 Mg2+ 2 a 0.5000 0.5000 0.5000 1 0 0.01023(10) 
O1 O2- 4 e 0.13108(6) 0.50693(7) 0.72005(4) 1 0 0.01033(13) 
O2 O2- 4 e -0.03721(6) 0.50005(8) 0.63761(5) 1 0 0.01469(15) 
O3 O2- 4 e 0.15662(6) 0.24476(7) 0.61127(4) 1 0 0.01059(13) 
O4 O2- 4 e 0.01999(6) 0.29304(8) 0.50271(5) 1 0 0.01424(14) 
O5 O2- 4 e 0.39842(6) 0.34834(7) 0.56271(4) 1 0 0.01080(13) 
O6 O2- 4 e 0.38844(6) 0.12672(7) 0.59657(5) 1 0 0.01269(14) 
O7 O2- 4 e 0.30752(6) 0.30016(7) 0.74665(4) 1 0 0.01050(13) 
O8 O2- 4 e 0.18521(6) -0.05678(7) 0.63388(4) 1 0 0.01283(14) 
O9 O2- 4 e 0.18298(6) 0.52620(7) 0.52509(4) 1 0 0.01064(13) 
O10 O2- 4 e 0.35042(6) 0.60605(8) 0.46735(5) 1 0 0.01430(14) 
O11 O2- 4 e 0.34936(6) 0.58208(7) 0.69627(4) 1 0 0.01060(13) 
O12 O2- 4 e 0.51750(6) 0.60711(8) 0.62075(5) 1 0 0.01520(15) 
C1 C2+ 4 e 0.01949(8) 0.51633(11) 0.71015(6) 1 0 0.01257(18) 
H1 H1+ 4 e -0.0233 0.5373 0.7619 1 0 0.015 
C2 C2+ 4 e 0.07854(8) 0.21305(11) 0.55022(6) 1 0 0.01312(18) 
H2 H1+ 4 e 0.0647 0.1210 0.5408 1 0 0.016 
C3 C2+ 4 e 0.43054(8) 0.22466(10) 0.55533(6) 1 0 0.01250(18) 
H3 H1+ 4 e 0.4912 0.2064 0.5152 1 0 0.015 
C4 C2+ 4 e 0.16979(8) -0.16934(10) 0.66953(6) 1 0 0.01187(17) 
H4 H1+ 4 e 0.1390 -0.2378 0.6322 1 0 0.014 
C5 C2+ 4 e 0.24207(8) 0.60081(10) 0.47069(6) 1 0 0.01223(18) 
H5 H1+ 4 e 0.1993 0.6557 0.4302 1 0 0.015 
C6 C2+ 4 e 0.45158(8) 0.63213(11) 0.68454(6) 1 0 0.01373(18) 
H6 H1+ 4 e 0.4791 0.6935 0.7284 1 0 0.016 

loop_
_atom_site_aniso_label
_atom_site_aniso_type_symbol
_atom_site_aniso_U_11
_atom_site_aniso_U_22
_atom_site_aniso_U_33
_atom_site_aniso_U_12
_atom_site_aniso_U_13
_atom_site_aniso_U_23
Mg1 Mg2+ 0.00849(14) 0.00823(16) 0.00857(14) 0.00013(11) -0.00012(10) 
0.00020(11)
Mg2 Mg2+ 0.00852(19) 0.0109(2) 0.01000(19) -0.00004(16) -0.00158(15) 
0.00073(16)
Mg3 Mg2+ 0.00986(14) 0.00804(16) 0.00927(14) -0.00017(11) -0.00016(11) 
0.00063(11)
Mg4 Mg2+ 0.00898(19) 0.0107(2) 0.0111(2) -0.00076(16) 0.00160(15) 
0.00097(16)
O1 O2- 0.0092(3) 0.0108(3) 0.0110(3) 0.0000(2) -0.0003(2) -0.0013(2)
O2 O2- 0.0115(3) 0.0206(4) 0.0120(3) -0.0004(3) -0.0015(2) 0.0003(3)
O3 O2- 0.0110(3) 0.0098(3) 0.0110(3) -0.0008(2) -0.0017(2) 0.0004(2)
O4 O2- 0.0141(3) 0.0126(4) 0.0158(3) 0.0006(3) -0.0051(2) 0.0009(3)
O5 O2- 0.0107(3) 0.0095(3) 0.0123(3) 0.0005(2) 0.0016(2) 0.0006(2)
O6 O2- 0.0144(3) 0.0103(3) 0.0135(3) 0.0004(3) 0.0024(2) 0.0011(2)
O7 O2- 0.0126(3) 0.0092(3) 0.0096(3) -0.0006(2) -0.0008(2) -0.0004(2)
O8 O2- 0.0171(3) 0.0101(3) 0.0113(3) -0.0016(3) -0.0020(2) 0.0011(2)
O9 O2- 0.0097(3) 0.0118(3) 0.0104(3) -0.0007(2) -0.0003(2) 0.0018(2)
O10 O2- 0.0101(3) 0.0153(4) 0.0176(3) -0.0004(3) 0.0015(2) 0.0032(3)
O11 O2- 0.0099(3) 0.0100(3) 0.0119(3) -0.0012(2) 0.0006(2) -0.0004(2)
O12 O2- 0.0134(3) 0.0185(4) 0.0138(3) -0.0038(3) 0.0030(2) -0.0016(3)
C1 C2+ 0.0109(4) 0.0147(5) 0.0122(4) 0.0001(3) 0.0019(3) 0.0000(3)
C2 C2+ 0.0136(4) 0.0098(5) 0.0158(4) -0.0011(3) -0.0029(3) -0.0009(3)
C3 C2+ 0.0120(4) 0.0132(5) 0.0125(4) 0.0007(3) 0.0029(3) -0.0004(3)
C4 C2+ 0.0138(4) 0.0111(5) 0.0106(4) -0.0010(3) -0.0018(3) -0.0018(3)
C5 C2+ 0.0120(4) 0.0124(5) 0.0123(4) -0.0002(3) -0.0011(3) 0.0023(3)
C6 C2+ 0.0139(4) 0.0143(5) 0.0130(4) -0.0038(4) 0.0003(3) -0.0017(3)
#End of data_249195-ICSD


