data_30545-ICSD
#?2014 by Fachinformationszentrum Karlsruhe, and the U.S. Secretary of 
#Commerce on behalf of the United States.  All rights reserved.
_database_code_ICSD                30545
_audit_creation_date               1980/01/01
_audit_update_record               2012/02/01
_chemical_name_systematic
;
Hexaureamagnesium Bromide - Urea (1/4)
;
_chemical_formula_structural
;
((Mg (N H2 C O N H2)6) Br2) (N H2 C O N H2)4
;
_chemical_formula_sum              'C10 H40 Br2 Mg1 N20 O10'
_publ_section_title
;
Hexakis(urea)magnesium bromide - urea(1/4)
;
loop_
_citation_id
_citation_journal_abbrev
_citation_year
_citation_journal_volume
_citation_page_first
_citation_page_last
_citation_journal_id_ASTM
primary 'Acta Crystallographica B (24,1968-38,1982)' 1979 35 157 158 ACBCAR
_publ_author_name
;
Lebioda, L.;Stanicka, K.;Sliwinski, J.
;
_cell_length_a                     9.723(4)
_cell_length_b                     7.228(3)
_cell_length_c                     23.751(9)
_cell_angle_alpha                  90.
_cell_angle_beta                   95.79(4)
_cell_angle_gamma                  90.
_cell_volume                       1660.65
_cell_formula_units_Z              2
_symmetry_space_group_name_H-M     'P 1 21/c 1'
_symmetry_Int_Tables_number        14
_refine_ls_R_factor_all            .049
loop_
_symmetry_equiv_pos_site_id
_symmetry_equiv_pos_as_xyz
  1	'x, -y+.5, z+.5'
  2	'-x, -y, -z'
  3	'-x, y+.5, -z+.5'
  4	'x, y, z'
loop_
_atom_type_symbol
_atom_type_oxidation_number
Br1-	-1
C4+	4
H1+	1
Mg2+	2
N3-	-3
O2-	-2
loop_
_atom_site_label
_atom_site_type_symbol
_atom_site_symmetry_multiplicity
_atom_site_Wyckoff_symbol
_atom_site_fract_x
_atom_site_fract_y
_atom_site_fract_z
_atom_site_occupancy
_atom_site_attached_hydrogens
_atom_site_U_iso_or_equiv
Mg1 Mg2+ 2 a 0 0.5 0.5 1. 0 0 
Br1 Br1- 4 e 0.48249(5) 0.26885(8) 0.29959(2) 1. 0 0 
C1 C4+ 4 e 0.1605(5) 0.2801(6) 0.4173(2) 1. 0 0 
N1 N3- 4 e 0.2576(7) 0.2196(8) 0.4576(3) 1. 0 0 
N2 N3- 4 e 0.1740(6) 0.2287(7) 0.3626(2) 1. 0 0 
O1 O2- 4 e 0.0623(3) 0.3801(5) 0.4284(1) 1. 0 0 
H1 H1+ 4 e 0.248(9) 0.236(8) 0.488(4) 1. 0 0.0516 
H2 H1+ 4 e 0.324(7) 0.121(9) 0.446(3) 1. 0 0.0516 
H3 H1+ 4 e 0.249(8) 0.185(10) 0.353(3) 1. 0 0.0471 
H4 H1+ 4 e 0.111(8) 0.304(8) 0.333(3) 1. 0 0.0471 
C2 C4+ 4 e 0.0657(6) 0.2107(6) 0.5929(2) 1. 0 0 
N3 N3- 4 e 0.1619(6) 0.1476(10) 0.6332(2) 1. 0 0 
N4 N3- 4 e -.0644(5) 0.1734(9) 0.5992(3) 1. 0 0 
O2 O2- 4 e 0.1003(4) 0.3046(5) 0.5528(2) 1. 0 0 
H5 H1+ 4 e 0.247(6) 0.178(8) 0.628(2) 1. 0 0.0785 
H6 H1+ 4 e 0.138(6) 0.070(9) 0.664(3) 1. 0 0.0785 
H7 H1+ 4 e -.086(7) 0.092(10) 0.626(3) 1. 0 0.0675 
H8 H1+ 4 e -.133(10) 0.210(11) 0.575(4) 1. 0 0.0675 
C3 C4+ 4 e 0.2612(5) 0.7112(6) 0.5482(2) 1. 0 0 
N5 N3- 4 e 0.3720(5) 0.8133(8) 0.5410(2) 1. 0 0 
N6 N3- 4 e 0.2376(6) 0.6746(10) 0.6014(2) 1. 0 0 
O3 O2- 4 e 0.1824(3) 0.6533(4) 0.5068(1) 1. 0 0 
H9 H1+ 4 e 0.388(7) 0.842(10) 0.499(3) 1. 0 0.05 
H10 H1+ 4 e 0.430(6) 0.853(7) 0.567(3) 1. 0 0.05 
H11 H1+ 4 e 0.177(76) 0.607(8) 0.608(3) 1. 0 0.0599 
H12 H1+ 4 e 0.295(10) 0.500(12) 0.626(4) 1. 0 0.0599 
C4 C4+ 4 e 0.4387(6) -.2585(6) -.1079(3) 1. 0 0 
N7 N3- 4 e 0.5014(6) -.2887(8) -.1536(2) 1. 0 0 
N8 N3- 4 e 0.4129(7) -.0860(7) -.0926(3) 1. 0 0 
O4 O2- 4 e 0.4119(4) -.3996(4) -.0794(2) 1. 0 0 
H13 H1+ 4 e 0.505(8) -.212(11) -.179(4) 1. 0 0.0538 
H14 H1+ 4 e 0.493(5) -.387(7) -.173(2) 1. 0 0.0538 
H15 H1+ 4 e 0.383(9) -.081(11) -.056(4) 1. 0 0.0705 
H16 H1+ 4 e 0.425(7) -.004(11) -.118(3) 1. 0 0.0705 
C5 C4+ 4 e -.1136(5) 0.3255(7) 0.2544(2) 1. 0 0 
N9 N3- 4 e -.1849(5) 0.4812(7) 0.2605(2) 1. 0 0 
N10 N3- 4 e -.1830(5) 0.1637(7) 0.2521(2) 1. 0 0 
O5 O2- 4 e 0.0140(3) 0.3284(5) 0.2515(2) 1. 0 0 
H17 H1+ 4 e -.271(7) 0.479(10) 0.263(3) 1. 0 0.0594 
H18 H1+ 4 e -.136(8) 0.591(13) 0.258(3) 1. 0 0.0594 
H19 H1+ 4 e -.141(8) 0.068(11) 0.243(3) 1. 0 0.0587 
H20 H1+ 4 e -.274(6) 0.167(7) 0.258(2) 1. 0 0.0587 

loop_
_atom_site_aniso_label
_atom_site_aniso_type_symbol
_atom_site_aniso_U_11
_atom_site_aniso_U_22
_atom_site_aniso_U_33
_atom_site_aniso_U_12
_atom_site_aniso_U_13
_atom_site_aniso_U_23
Mg1 Mg2+ 0.0254(9) 0.0335(10) 0.0299(10) 0.0001(7) 0.0049(7) 0.0004(8)
Br1 Br1- 0.0407(4) 0.0543(4) 0.0379(4) -.0080(2) 0.0096(3) -.0056(2)
C1 C4+ 0.032(2) 0.035(2) 0.044(3) -.006(2) 0.011(2) -.004(2)
N1 N3- 0.042(3) 0.073(4) 0.040(3) 0.023(3) 0.002(3) -.008(3)
N2 N3- 0.042(3) 0.057(3) 0.043(3) 0.009(2) 0.017(2) -.004(2)
O1 O2- 0.032(2) 0.043(2) 0.037(2) 0.007(1) 0.009(1) -.004(1)
C2 C4+ 0.044(3) 0.038(2) 0.040(2) -.001(2) 0.001(2) 0.001(2)
N3 N3- 0.052(2) 0.107(5) 0.077(3) -.002(3) 0.001(3) 0.060(3)
N4 N3- 0.050(3) 0.075(4) 0.077(4) -.015(3) 0.000(3) 0.042(3)
O2 O2- 0.040(2) 0.044(2) 0.033(2) 0.005(1) 0.008(1) 0.011(1)
C3 C4+ 0.038(2) 0.042(2) 0.038(3) 0.002(2) 0.007(2) 0.006(2)
N5 N3- 0.036(3) 0.066(3) 0.049(3) -.027(2) 0.003(2) -.005(2)
N6 N3- 0.049(3) 0.094(4) 0.037(3) -.032(2) -.004(2) 0.002(3)
O3 O2- 0.033(2) 0.050(2) 0.032(2) -.011(1) -.004(1) 0.002(1)
C4 C4+ 0.036(3) 0.060(3) 0.034(4) -.001(2) 0.008(2) 0.017(2)
N7 N3- 0.066(3) 0.060(3) 0.035(3) 0.008(2) 0.017(2) -.004(2)
N8 N3- 0.101(5) 0.034(2) 0.076(4) 0.018(3) 0.028(4) 0.002(3)
O4 O2- 0.061(2) 0.042(2) 0.048(2) 0.005(2) 0.022(2) 0.007(2)
C5 C4+ 0.044(3) 0.051(3) 0.030(2) 0.004(2) 0.006(2) 0.004(2)
N9 N3- 0.039(2) 0.047(3) 0.092(4) 0.009(2) 0.022(2) 0.010(2)
N10 N3- 0.043(2) 0.049(3) 0.084(3) -.004(2) 0.020(2) -.010(2)
O5 O2- 0.031(2) 0.047(2) 0.068(2) 0.001(1) 0.013(2) -.001(2)
#End of data_30545-ICSD


