data_39384-ICSD
#?2014 by Fachinformationszentrum Karlsruhe, and the U.S. Secretary of 
#Commerce on behalf of the United States.  All rights reserved.
_database_code_ICSD                39384
_audit_creation_date               1991/07/10
_chemical_name_systematic
;
Sodium Biuretooxothiophosphate Hydrate
;
_chemical_formula_structural       'Na (P O S (N H)3 (C O)2) H2 O'
_chemical_formula_sum              'C2 H5 N3 Na1 O4 P1 S1'
_publ_section_title
;
The structure of sodium and yttrium biureto(oxo,thio) phosphates
;
loop_
_citation_id
_citation_journal_abbrev
_citation_year
_citation_journal_volume
_citation_page_first
_citation_page_last
_citation_journal_id_ASTM
primary 'Izvestiya Akademii Nauk SSSR, Neorganicheskie Materialy'
 1991 27 340 346 IVNMAW
_publ_author_name
;
Palkina, K.K.;Maksimova, S.I.;Chibiskova, N.T.;Neels, E.;Valis, B.
;
_cell_length_a                     6.131(2)
_cell_length_b                     6.883(2)
_cell_length_c                     10.370(2)
_cell_angle_alpha                  87.39(2)
_cell_angle_beta                   77.25(2)
_cell_angle_gamma                  77.37(2)
_cell_volume                       416.49
_cell_formula_units_Z              2
_symmetry_space_group_name_H-M     'P -1'
_symmetry_Int_Tables_number        2
_refine_ls_R_factor_all            .084
loop_
_symmetry_equiv_pos_site_id
_symmetry_equiv_pos_as_xyz
  1	'-x, -y, -z'
  2	'x, y, z'
loop_
_atom_type_symbol
_atom_type_oxidation_number
C4+	4
H1+	1
N3-	-3
Na1+	1
O2-	-2
P5+	5
S2-	-2
loop_
_atom_site_label
_atom_site_type_symbol
_atom_site_symmetry_multiplicity
_atom_site_Wyckoff_symbol
_atom_site_fract_x
_atom_site_fract_y
_atom_site_fract_z
_atom_site_occupancy
_atom_site_attached_hydrogens
_atom_site_B_iso_or_equiv
Na1 Na1+ 2 i 0.5228(5) 0.6740(5) 0.1812(3) 1. 0 1.4(2) 
P1 P5+ 2 i 0.0638(5) 0.2377(4) 0.2312(3) 1. 0 2.2(1) 
S1 S2- 2 i 0.3891(5) 0.1821(4) 0.1540(3) 1. 0 3.2(1) 
O1 O2- 2 i 0.9106(11) 0.3847(10) 0.1625(6) 1. 0 3.1(3) 
N1 N3- 2 i 0.9628(13) 0.0234(11) 0.2588(8) 1. 0 2.4(4) 
N2 N3- 2 i 0.0161(13) 0.3137(12) 0.3854(7) 1. 0 2.7(4) 
N3 N3- 2 i 0.7107(14) 0.1446(12) 0.4536(7) 1. 0 3.0(4) 
C1 C4+ 2 i 0.7844(16) 0.0056(14) 0.3567(10) 1. 0 2.7(5) 
C2 C4+ 2 i 0.8323(19) 0.2866(15) 0.4743(10) 1. 0 3.1(5) 
O2 O2- 2 i 0.6842(11) 0.8660(9) 0.3618(6) 1. 0 3.3(4) 
O3 O2- 2 i 0.2369(12) 0.6164(10) 0.4229(6) 1. 0 3.8(4) 
O4 O2- 2 i 0.1147(12) 0.7059(10) 0.0843(6) 1. 0 3.4(4) 
H1 H1+ 2 i 0 0.95 0.2 1. 0 0 
H2 H1+ 2 i 0.1 0.4 0.4 1. 0 0 
H3 H1+ 2 i 0.4 0.85 0.48 1. 0 0 
H4 H1+ 2 i 0.1 0.6 0.13 1. 0 0 
H5 H1+ 2 i 0 0.6 0.08 1. 0 0 

#End of data_39384-ICSD


