data_26969-ICSD
#?2014 by Fachinformationszentrum Karlsruhe, and the U.S. Secretary of 
#Commerce on behalf of the United States.  All rights reserved.
_database_code_ICSD                26969
_audit_creation_date               1980/01/01
_audit_update_record               2004/10/01
_chemical_name_systematic
;
Disodium Calcium Dicarbonate Pentahydrate
;
_chemical_formula_structural       'Na2 Ca (C O3)2 (H2 O)5'
_chemical_formula_sum              'C2 H10 Ca1 Na2 O11'
_chemical_name_mineral             Gaylussite
_publ_section_title
;
The crystal structure of gaylussite.
;
loop_
_citation_id
_citation_journal_abbrev
_citation_year
_citation_journal_volume
_citation_page_first
_citation_page_last
_citation_journal_id_ASTM
primary
;
Atti della Accademia Nazionale dei Lincei, Classe di Scienze Fisiche, 
Matematiche e Naturali, Rendiconti, Serie 8 (1, 1946-)
;
 1968 44 680 694 AANL8V
_publ_author_name                  'Menchetti, S.;Carobbi, S.G.'
_cell_length_a                     14.349(5)
_cell_length_b                     7.780(4)
_cell_length_c                     11.207(2)
_cell_angle_alpha                  90.
_cell_angle_beta                   127.85(3)
_cell_angle_gamma                  90.
_cell_volume                       987.89
_cell_formula_units_Z              4
_symmetry_space_group_name_H-M     'C 1 2/c 1'
_symmetry_Int_Tables_number        15
_refine_ls_R_factor_all            .053
loop_
_symmetry_equiv_pos_site_id
_symmetry_equiv_pos_as_xyz
  1	'x, -y, z+.5'
  2	'-x, -y, -z'
  3	'-x, y, -z+.5'
  4	'x, y, z'
  5	'x+.5, -y+.5, z+.5'
  6	'-x+.5, -y+.5, -z'
  7	'-x+.5, y+.5, -z+.5'
  8	'x+.5, y+.5, z'
loop_
_atom_type_symbol
_atom_type_oxidation_number
C4+	4
Ca2+	2
H1+	1
Na1+	1
O2-	-2
loop_
_atom_site_label
_atom_site_type_symbol
_atom_site_symmetry_multiplicity
_atom_site_Wyckoff_symbol
_atom_site_fract_x
_atom_site_fract_y
_atom_site_fract_z
_atom_site_occupancy
_atom_site_attached_hydrogens
Na1 Na1+ 8 f 0.4122(2) 0.8182(5) 0.5109(2) 1. 0 
Ca1 Ca2+ 4 e 0.5 0.8065(3) 0.25 1. 0 
O1 O2- 8 f 0.3345(3) 0.9902(8) 0.0894(3) 1. 0 
O2 O2- 8 f 0.3962(3) 0.9960(8) 0.3245(4) 1. 0 
O3 O2- 8 f 0.2149(3) 0.0909(8) 0.1367(4) 1. 0 
O4 O2- 8 f 0.3526(3) 0.5965(8) 0.1893(4) 1. 0 
O5 O2- 8 f 0.5707(3) 0.7073(8) 0.5034(4) 1. 0 
O6 O2- 4 e 0.5 0.3191(11) 0.25 1. 0 
C1 C4+ 8 f 0.3153(4) 0.0266(11) 0.1844(5) 1. 0 
H1 H1+ 8 f 0.1728 0.0944 0.2452 1. 0 
H2 H1+ 8 f 0.2174 0.064 0.4151 1. 0 
H3 H1+ 8 f 0.4473 0.4182 0.2283 1. 0 
H4 H1+ 8 f 0.38 0.4 0.48 1. 0 
H5 H1+ 8 f 0.4177 0.1888 0.4363 1. 0 

#End of data_26969-ICSD


