data_2227-ICSD
#?2014 by Fachinformationszentrum Karlsruhe, and the U.S. Secretary of 
#Commerce on behalf of the United States.  All rights reserved.
_database_code_ICSD                2227
_audit_creation_date               1980/01/01
_audit_update_record               2012/02/01
_chemical_name_systematic
;
Potassium Tetrakis(oxalato)zirconate Pentahydrate
;
_chemical_formula_structural       'K4 Zr (C2 O4)4 (H2 O)5'
_chemical_formula_sum              'C8 H10 K4 O21 Zr1'
_publ_section_title
;
Structure of tetrapotassium tetrakis(oxalato)zirconate(IV) 
pentahydrate
;
loop_
_citation_id
_citation_journal_abbrev
_citation_year
_citation_journal_volume
_citation_page_first
_citation_page_last
_citation_journal_id_ASTM
primary 'Acta Crystallographica B (24,1968-38,1982)' 1978 34 2001 2002 ACBCAR
_publ_author_name
;
Kojic-Prodic, B.;Ruzic Toros, Z.;Sljukic, M.
;
_cell_length_a                     10.624
_cell_length_b                     12.385
_cell_length_c                     15.984
_cell_angle_alpha                  90.
_cell_angle_beta                   94.43
_cell_angle_gamma                  90.
_cell_volume                       2096.86
_cell_formula_units_Z              4
_symmetry_space_group_name_H-M     'P 1 21/c 1'
_symmetry_Int_Tables_number        14
_refine_ls_R_factor_all            .04
loop_
_symmetry_equiv_pos_site_id
_symmetry_equiv_pos_as_xyz
  1	'x, -y+.5, z+.5'
  2	'-x, -y, -z'
  3	'-x, y+.5, -z+.5'
  4	'x, y, z'
loop_
_atom_type_symbol
_atom_type_oxidation_number
C3+	3
H1+	1
K1+	1
O2-	-2
Zr4+	4
loop_
_atom_site_label
_atom_site_type_symbol
_atom_site_symmetry_multiplicity
_atom_site_Wyckoff_symbol
_atom_site_fract_x
_atom_site_fract_y
_atom_site_fract_z
_atom_site_occupancy
_atom_site_attached_hydrogens
_atom_site_U_iso_or_equiv
Zr1 Zr4+ 4 e 0.23685(3) 0.15172(3) 0.32796(2) 1. 0 0 
K1 K1+ 4 e 0.50897(9) -.06015(8) 0.30954(6) 1. 0 0 
K2 K1+ 4 e 0.87259(8) 0.15621(7) 0.25275(6) 1. 0 0 
K3 K1+ 4 e 0.61085(10) 0.32569(9) 0.58981(7) 1. 0 0 
K4 K1+ 4 e 0.01699(9) 0.77133(7) 0.51146(6) 1. 0 0 
O1 O2- 4 e 0.12579(23) 0.15106(23) 0.20848(16) 1. 0 0 
O2 O2- 4 e 0.11319(30) 0.10777(26) 0.07225(18) 1. 0 0 
O3 O2- 4 e 0.36138(24) 0.11180(22) 0.22802(18) 1. 0 0 
O4 O2- 4 e 0.37258(31) 0.06736(28) 0.09372(21) 1. 0 0 
O5 O2- 4 e 0.43251(24) 0.13096(22) 0.38535(18) 1. 0 0 
O6 O2- 4 e 0.55571(27) 0.12299(28) 0.50551(22) 1. 0 0 
O7 O2- 4 e 0.23816(25) 0.18119(25) 0.46083(18) 1. 0 0 
O8 O2- 4 e 0.34629(35) 0.18533(31) 0.58657(21) 1. 0 0 
O9 O2- 4 e 0.25956(23) -.02356(21) 0.33810(18) 1. 0 0 
O10 O2- 4 e 0.17825(27) -.18351(22) 0.37128(19) 1. 0 0 
O11 O2- 4 e 0.5956(22) 0.07924(20) 0.36251(17) 1. 0 0 
O12 O2- 4 e -.04074(26) -.06814(25) 0.40178(23) 1. 0 0 
O13 O2- 4 e 0.09179(23) 0.27942(20) 0.33522(18) 1. 0 0 
O14 O2- 4 e 0.04032(26) 0.45136(23) 0.31224(23) 1. 0 0 
O15 O2- 4 e 0.32266(24) 0.31002(21) 0.30819(19) 1. 0 0 
O16 O2- 4 e 0.29816(27) 0.48784(23) 0.29598(23) 1. 0 0 
O17 O2- 4 e 0.18770(32) 0.84672(31) 0.15127(24) 1. 0 0 
O18 O2- 4 e 0.39428(30) 0.74340(29) 0.24725(21) 1. 0 0 
O19 O2- 4 e 0.17253(37) 0.57389(29) 0.46930(23) 1. 0 0 
O20 O2- 4 e 0.45671(39) -.13789(30) 0.07490(26) 1. 0 0 
O21 O2- 4 e 0.22462(42) -.09556(39) 0.58585(33) 1. 0 0 
C1 C3+ 4 e 0.17181(37) 0.12138(31) 0.14071(24) 1. 0 0 
C2 C3+ 4 e 0.31535(37) 0.09772(30) 0.15285(26) 1. 0 0 
C3 C3+ 4 e 0.45406(35) 0.13861(29) 0.46509(27) 1. 0 0 
C4 C3+ 4 e 0.33825(40) 0.17165(32) 0.51084(26) 1. 0 0 
C5 C3+ 4 e 0.17236(33) -.08516(29) 0.36146(24) 1. 0 0 
C6 C3+ 4 e 0.05111(32) -.02295(30) 0.37771(24) 1. 0 0 
C7 C3+ 4 e 0.11644(33) 0.37771(28) 0.31839(25) 1. 0 0 
C8 C3+ 4 e 0.25740(34) 0.39713(30) 0.30609(25) 1. 0 0 
H1 H1+ 4 e 0.883 0.12 0.84 1. 0 0.044 
H2 H1+ 4 e 0.78 0.125 0.88 1. 0 0.044 
H3 H1+ 4 e 0.65 0.3 0.29 1. 0 0.036 
H4 H1+ 4 e 0.568 0.2 0.29 1. 0 0.036 
H5 H1+ 4 e 0.15 -.01 0 1. 0 0.049 
H6 H1+ 4 e 0.117 -.05 -.07 1. 0 0.049 
H7 H1+ 4 e 0.55 0.425 0.41 1. 0 0.061 
H8 H1+ 4 e 0.45 0.362 0.4 1. 0 0.061 
H9 H1+ 4 e 0.266 -.1 0.53 1. 0 0.073 
H10 H1+ 4 e 0.266 -.05 0.62 1. 0 0.073 

loop_
_atom_site_aniso_label
_atom_site_aniso_type_symbol
_atom_site_aniso_U_11
_atom_site_aniso_U_22
_atom_site_aniso_U_33
_atom_site_aniso_U_12
_atom_site_aniso_U_13
_atom_site_aniso_U_23
Zr1 Zr4+ 0.0143(2) 0.0142(2) 0.0238(2) 0.0007(1) 0.0005(1) 0.0009(1)
K1 K1+ 0.0327(5) 0.0329(5) 0.0436(6) 0.0112(4) 0.0067(4) 0.0086(4)
K2 K1+ 0.0253(4) 0.0268(4) 0.0404(5) 0.0020(3) 0.0005(4) -.0031(3)
K3 K1+ 0.0416(5) 0.0408(6) 0.0405(6) 0.0022(4) 0.0011(4) -.0067(4)
K4 K1+ 0.0350(5) 0.0302(5) 0.0319(5) -.0014(4) 0.0026(4) 0.0083(4)
O1 O2- 0.0213(11) 0.0318(14) 0.0264(13) -.0004(11) 0.0003(12) 0.0001(10)
O2 O2- 0.0467(18) 0.0384(17) 0.0283(16) -.0003(14) -.0007(13) -.0036(13)
O3 O2- 0.0232(12) 0.0292(14) 0.0320(15) 0.0017(11) 0.0033(12) 0.0061(11)
O4 O2- 0.0503(19) 0.0485(20) 0.0400(18) 0.0115(16) -.0024(16) 0.0118(15)
O5 O2- 0.0212(12) 0.0287(14) 0.0334(15) 0.0023(10) -.0029(11) -.0027(10)
O6 O2- 0.0292(15) 0.0464(19) 0.0491(19) 0.0047(14) 0.0014(15) -.0049(14)
O7 O2- 0.0246(13) 0.0405(16) 0.0310(15) 0.0047(12) -.0002(12) -.0022(11)
O8 O2- 0.0600(22) 0.0575(21) 0.0308(17) 0.0181(18) -.0061(16) -.0098(15)
O9 O2- 0.0223(12) 0.0199(12) 0.0405(16) 0.0029(10) 0.0021(11) 0.0089(11)
O10 O2- 0.0353(15) 0.0167(12) 0.0445(18) -.0005(11) 0.0035(12) 0.0037(13)
O11 O2- 0.0205(11) 0.0183(12) 0.0333(14) 0.0010(9) 0.0037(11) 0.0033(10)
O12 O2- 0.0257(14) 0.0281(15) 0.0757(24) 0.0001(12) 0.0162(15) 0.0164(15)
O13 O2- 0.0213(12) 0.0169(11) 0.0376(15) 0.0020(9) 0.0018(11) 0.0057(11)
O14 O2- 0.0298(14) 0.0215(14) 0.0682(22) 0.0062(11) 0.0092(14) 0.0082(14)
O15 O2- 0.0217(12) 0.0188(12) 0.0435(17) 0.0001(10) 0.0025(12) 0.0045(11)
O16 O2- 0.0321(15) 0.0188(14) 0.0723(24) -.0027(24) 0.0060(14) 0.0163(15)
O17 O2- 0.0390(17) 0.0563(22) 0.0604(23) 0.0034(17) 0.0191(19) 0.0133(16)
O18 O2- 0.0420(18) 0.0498(20) 0.0426(19) 0.0021(15) 0.0007(16) 0.0128(15)
O19 O2- 0.0696(24) 0.0421(20) 0.0464(21) -.0123(18) 0.0032(16) 0.0062(18)
O20 O2- 0.0709(26) 0.0466(22) 0.0589(24) 0.0135(19) -.0118(18) -.0175(20)
O21 O2- 0.0707(28) 0.0689(30) 0.1034(37) 0.0200(24) 0.0277(27) 0.0380(26)
C1 C3+ 0.0321(19) 0.0218(17) 0.0264(19) -.0040(14) -.0005(14) 0.0012(15)
C2 C3+ 0.0326(19) 0.0201(17) 0.0339(21) 0.0012(15) 0.0037(15) 0.0082(16)
C3 C3+ 0.0261(17) 0.0201(17) 0.0380(21) 0.0012(14) 0.0002(15) -.0068(15)
C4 C3+ 0.0367(20) 0.0255(20) 0.0309(20) 0.0045(16) -.0019(15) -.0048(16)
C5 C3+ 0.0242(16) 0.0193(16) 0.0266(18) 0.0014(13) -.0017(13) 0.0016(14)
C6 C3+ 0.0207(16) 0.0222(17) 0.0294(19) 0.0004(13) 0.0057(15) 0.0017(14)
C7 C3+ 0.0217(16) 0.0174(15) 0.0315(19) 0.0021(12) 0.0046(14) 0.0056(14)
C8 C3+ 0.0253(17) 0.0218(17) 0.0319(20) 0.0026(14) 0.0003(15) 0.0065(14)
#End of data_2227-ICSD


