data_172153-ICSD
#?2014 by Fachinformationszentrum Karlsruhe, and the U.S. Secretary of 
#Commerce on behalf of the United States.  All rights reserved.
_database_code_ICSD                172153
_audit_creation_date               2007/04/01
_chemical_name_systematic
;
Tetrasodium Zinc Bisaminomethylenediphosphonate Tetrahydrate
;
_chemical_formula_structural       'Na4 Zn (N H3 C H (P O3)2)2 (H2 O)4'
_chemical_formula_sum              'C2 H16 N2 Na4 O16 P4 Zn1'
_publ_section_title
;
Metal phosphonates based on aminomethylenediphosphonate: syntheses 
and characterization of Na4 Zn {N H3 C H (P O3)2}2.4H2 O, Ni {N H3 C 
H (P O3 H)2}2.xH2 O and Na Ni2 {N H3 C H (P O3) (P O3 H0.5)}2 (H2 
O)2.2H2 O
;
loop_
_citation_id
_citation_journal_abbrev
_citation_year
_citation_journal_volume
_citation_journal_issue
_citation_page_first
_citation_page_last
_citation_journal_id_ASTM
primary 'Journal of Solid State Chemistry' 2006 179 2 413 420 JSSCBI
_publ_author_name
;
Bao Songsong;Wang Tianwei;Li Yizhi;Zheng Limin
;
_cell_length_a                     5.5508(16)
_cell_length_b                     6.1663(19)
_cell_length_c                     12.424(4)
_cell_angle_alpha                  92.422(6)
_cell_angle_beta                   92.687(7)
_cell_angle_gamma                  93.926(6)
_cell_volume                       423.34
_cell_formula_units_Z              1
_symmetry_space_group_name_H-M     'P -1'
_symmetry_Int_Tables_number        2
_refine_ls_R_factor_all            .0759
loop_
_symmetry_equiv_pos_site_id
_symmetry_equiv_pos_as_xyz
  1	'-x, -y, -z'
  2	'x, y, z'
loop_
_atom_type_symbol
_atom_type_oxidation_number
C2+	2
H1-	-1
H1+	1
N3-	-3
Na1+	1
O2-	-2
P4+	4
Zn2+	2
loop_
_atom_site_label
_atom_site_type_symbol
_atom_site_symmetry_multiplicity
_atom_site_Wyckoff_symbol
_atom_site_fract_x
_atom_site_fract_y
_atom_site_fract_z
_atom_site_occupancy
_atom_site_attached_hydrogens
_atom_site_U_iso_or_equiv
Zn1 Zn2+ 1 h 0.5000 0.5000 0.5000 1 0 0.0269(3) 
Na1 Na1+ 2 i 0.5147(4) 0.0905(4) 0.3131(2) 1 0 0.0307(6) 
Na2 Na1+ 2 i 0.1102(4) 0.0967(4) 0.11458(19) 1 0 0.0306(6) 
P1 P4+ 2 i 0.3563(3) 0.6044(3) 0.25078(13) 1 0 0.0267(4) 
P2 P4+ 2 i 0.0066(3) 0.3022(3) 0.36417(13) 1 0 0.0268(4) 
N1 N3- 2 i -0.0163(9) 0.7404(8) 0.3623(4) 1 0 0.0263(11) 
H1 H1+ 2 i 0.0033 0.8642 0.3269 1 0 0.040 
H2 H1+ 2 i -0.1711 0.7204 0.3805 1 0 0.040 
H3 H1+ 2 i 0.0816 0.7498 0.4224 1 0 0.040 
C1 C2+ 2 i 0.0478(11) 0.5552(9) 0.2913(5) 1 0 0.0256(12) 
H4 H1- 2 i -0.0614 0.5443 0.2267 1 0 0.031 
O1 O2- 2 i 0.4928(7) 0.6770(7) 0.3586(3) 1 0 0.0274(9) 
O2 O2- 2 i 0.4271(8) 0.3955(7) 0.1985(3) 1 0 0.0288(9) 
O3 O2- 2 i 0.3655(7) 0.7968(7) 0.1766(3) 1 0 0.0274(9) 
O4 O2- 2 i 0.2430(7) 0.2710(6) 0.4269(3) 1 0 0.0263(9) 
O5 O2- 2 i -0.0501(8) 0.1253(7) 0.2768(3) 1 0 0.0282(9) 
O6 O2- 2 i -0.2066(8) 0.3215(7) 0.4358(3) 1 0 0.0274(9) 
O7 O2- 2 i -0.2210(8) 0.3463(5) 0.0480(3) 1 0 0.0293(9) 
H5 H1+ 2 i -0.3269 0.3566 0.1004 1 0 0.035 
H6 H1+ 2 i -0.2783 0.3080 -0.0196 1 0 0.035 
O8 O2- 2 i -0.2085(8) -0.1834(5) 0.0595(3) 1 0 0.0282(9) 
H7 H1+ 2 i -0.1885 -0.3262 0.0490 1 0 0.034 
H8 H1+ 2 i -0.3392 -0.1437 0.0937 1 0 0.034 

loop_
_atom_site_aniso_label
_atom_site_aniso_type_symbol
_atom_site_aniso_U_11
_atom_site_aniso_U_22
_atom_site_aniso_U_33
_atom_site_aniso_U_12
_atom_site_aniso_U_13
_atom_site_aniso_U_23
Zn1 Zn2+ 0.0263(5) 0.0279(5) 0.0262(5) -0.0001(4) 0.0009(4) 0.0004(4)
Na1 Na1+ 0.0296(13) 0.0286(13) 0.0328(13) -0.0011(10) -0.0020(10) 
-0.0006(10)
Na2 Na1+ 0.0317(13) 0.0302(13) 0.0293(13) -0.0035(10) 0.0033(10) 0.0015(10)
P1 P4+ 0.0267(8) 0.0261(8) 0.0273(8) 0.0004(6) 0.0042(6) 0.0003(6)
P2 P4+ 0.0260(8) 0.0262(8) 0.0281(8) 0.0008(6) 0.0012(6) 0.0011(6)
N1 N3- 0.027(3) 0.024(3) 0.028(3) 0.002(2) 0.005(2) 0.002(2)
C1 C2+ 0.026(3) 0.022(3) 0.030(3) 0.000(2) 0.004(2) 0.006(2)
O1 O2- 0.026(2) 0.026(2) 0.031(2) 0.0012(17) 0.0027(17) 0.0036(17)
O2 O2- 0.030(2) 0.027(2) 0.029(2) -0.0021(18) 0.0038(17) 0.0034(17)
O3 O2- 0.025(2) 0.029(2) 0.029(2) -0.0002(18) 0.0075(17) 0.0014(17)
O4 O2- 0.027(2) 0.025(2) 0.026(2) 0.0015(17) -0.0020(17) 0.0014(16)
O5 O2- 0.030(2) 0.024(2) 0.031(2) -0.0011(17) -0.0021(18) 0.0073(17)
O6 O2- 0.031(2) 0.024(2) 0.027(2) -0.0002(17) 0.0034(17) -0.0014(16)
O7 O2- 0.030(2) 0.028(2) 0.030(2) -0.0005(18) 0.0068(18) -0.0056(17)
O8 O2- 0.030(2) 0.028(2) 0.028(2) 0.0042(18) 0.0100(17) 0.0004(17)
#End of data_172153-ICSD


