data_35254-ICSD
#?2014 by Fachinformationszentrum Karlsruhe, and the U.S. Secretary of 
#Commerce on behalf of the United States.  All rights reserved.
_database_code_ICSD                35254
_audit_creation_date               1982/12/31
_audit_update_record               2011/02/01
_chemical_name_systematic
;
Bis(urea)calcium Bis(dihydrogenphosphate(V)) - Urea (1/2)
;
_chemical_formula_structural
;
((Ca (O C (N H2)2)2) (H2 P O4)2) (C O (N H2)2)2
;
_chemical_formula_sum              'C4 H20 Ca1 N8 O12 P2'
_publ_section_title
;
Crystal structure of bis(urea)bis(dihydrogen phosphato)calcium- 
bis(urea) and its isomorphous magnesium analogue, M (O C (N H2)2)2 
(H2 PO 4)2 * 2 (C O (N H2)2) (M= Ca, Mg)
;
loop_
_citation_id
_citation_journal_abbrev
_citation_year
_citation_journal_volume
_citation_page_first
_citation_page_last
_citation_journal_id_ASTM
primary 'Inorganic Chemistry' 1982 21 4054 4058 INOCAJ
_publ_author_name                  'Hayden, T.D.;Kim, E.E.;Eriks, K.'
_cell_length_a                     7.404(1)
_cell_length_b                     21.534(6)
_cell_length_c                     5.657(1)
_cell_angle_alpha                  90.
_cell_angle_beta                   91.05(1)
_cell_angle_gamma                  90.
_cell_volume                       901.79
_cell_formula_units_Z              2
_symmetry_space_group_name_H-M     'P 1 21/n 1'
_symmetry_Int_Tables_number        14
_refine_ls_R_factor_all            .066
loop_
_symmetry_equiv_pos_site_id
_symmetry_equiv_pos_as_xyz
  1	'-x+.5, y+.5, -z+.5'
  2	'-x, -y, -z'
  3	'x+.5, -y+.5, z+.5'
  4	'x, y, z'
loop_
_atom_type_symbol
_atom_type_oxidation_number
C4+	4
Ca2+	2
H1+	1
N3-	-3
O2-	-2
P5+	5
loop_
_atom_site_label
_atom_site_type_symbol
_atom_site_symmetry_multiplicity
_atom_site_Wyckoff_symbol
_atom_site_fract_x
_atom_site_fract_y
_atom_site_fract_z
_atom_site_occupancy
_atom_site_attached_hydrogens
_atom_site_U_iso_or_equiv
Ca1 Ca2+ 2 a 0 0 0 1. 0 0 
P1 P5+ 4 e 0.1101(1) 0.0947(4) 0.5037(2) 1. 0 0 
O1 O2- 4 e 0.1524(3) 0.0442(1) 0.3151(4) 1. 0 0 
O2 O2- 4 e 0.1447(3) 0.0710(1) 0.7555(4) 1. 0 0 
O3 O2- 4 e 0.2209(4) 0.1511(1) 0.4537(5) 1. 0 0 
O4 O2- 4 e -.0969(3) 0.1095(1) 0.4834(5) 1. 0 0 
O5 O2- 4 e -.2345(3) 0.0728(1) 0.0642(5) 1. 0 0 
O6 O2- 4 e 0.2496(4) 0.2301(1) 0.8019(5) 1. 0 0 
C1 C4+ 4 e -.3909(5) 0.0794(2) -.0221(7) 1. 0 0 
C2 C4+ 4 e 0.1293(5) 0.2391(2) 0.9517(7) 1. 0 0 
N1 N3- 4 e -.4426(5) 0.0490(2) -.2156(7) 1. 0 0 
N2 N3- 4 e -.5091(5) 0.1186(2) 0.0734(9) 1. 0 0 
N3 N3- 4 e -.0069(5) 0.1997(2) 0.9788(7) 1. 0 0 
N4 N3- 4 e 0.1278(5) 0.2911(2) 1.0804(8) 1. 0 0 
H1 H1+ 4 e 0.225(6) 0.181(2) 0.561(9) 1. 0 0.070(16) 
H2 H1+ 4 e -.163(7) 0.095(2) 0.374(10) 1. 0 0.075(18) 
H3 H1+ 4 e -.366(6) 0.017(2) -.278(8) 1. 0 0.046(13) 
H4 H1+ 4 e -.540(6) 0.051(2) -.252(9) 1. 0 0.059(17) 
H5 H1+ 4 e -.607(6) 0.121(2) 0.017(9) 1. 0 0.063(17) 
H6 H1+ 4 e -.467(5) 0.136(2) 0.213(7) 1. 0 0.032(11) 
H7 H1+ 4 e -.004(6) 0.165(2) 0.937(8) 1. 0 0.054(15) 
H8 H1+ 4 e -.077(6) 0.210(2) 1.076(8) 1. 0 0.049(14) 
H9 H1+ 4 e 0.069(7) 0.294(2) 1.203(10) 1. 0 0.075(19) 
H10 H1+ 4 e 0.207(6) 0.311(2) 1.068(8) 1. 0 0.046(15) 

#End of data_35254-ICSD


