data_26011-ICSD
#?2014 by Fachinformationszentrum Karlsruhe, and the U.S. Secretary of 
#Commerce on behalf of the United States.  All rights reserved.
_database_code_ICSD                26011
_audit_creation_date               1980/12/31
_chemical_name_systematic
;
Diaquatetrakis(urea)magnesium Bromide
;
_chemical_formula_structural       '(Mg (C O (N H2)2)4 (H2 O)2) Br2'
_chemical_formula_sum              'C4 H20 Br2 Mg1 N8 O6'
_publ_section_title
;
Structure of Diaquatetrakis(urea)magnesium Bromide
;
loop_
_citation_id
_citation_journal_abbrev
_citation_year
_citation_journal_volume
_citation_page_first
_citation_page_last
_citation_journal_id_ASTM
primary 'Acta Crystallographica B (24,1968-38,1982)' 1980 36 693 695 ACBCAR
_publ_author_name                  'Lebioda, L.;Lewinski, K.'
_cell_length_a                     8.455(1)
_cell_length_b                     11.206(1)
_cell_length_c                     9.127(1)
_cell_angle_alpha                  90.
_cell_angle_beta                   103.52(2)
_cell_angle_gamma                  90.
_cell_volume                       840.79
_cell_formula_units_Z              2
_symmetry_space_group_name_H-M     'P 1 21/c 1'
_symmetry_Int_Tables_number        14
_refine_ls_R_factor_all            .029
loop_
_symmetry_equiv_pos_site_id
_symmetry_equiv_pos_as_xyz
  1	'x, -y+.5, z+.5'
  2	'-x, -y, -z'
  3	'-x, y+.5, -z+.5'
  4	'x, y, z'
loop_
_atom_type_symbol
_atom_type_oxidation_number
Br1-	-1
C4+	4
H1+	1
Mg2+	2
N3-	-3
O2-	-2
loop_
_atom_site_label
_atom_site_type_symbol
_atom_site_symmetry_multiplicity
_atom_site_Wyckoff_symbol
_atom_site_fract_x
_atom_site_fract_y
_atom_site_fract_z
_atom_site_occupancy
_atom_site_attached_hydrogens
_atom_site_B_iso_or_equiv
Mg1 Mg2+ 2 b 0.5 0 0 1. 0 0 
Br1 Br1- 4 e 0.14153(3) 0.69307(2) 0.06486(3) 1. 0 0 
O1 O2- 4 e 0.4229(2) 0.0989(1) -.1925(2) 1. 0 0 
C1 C4+ 4 e 0.2924(3) 0.1327(2) -.2776(2) 1. 0 0 
N1 N3- 4 e 0.2916(3) 0.1791(2) -.4131(2) 1. 0 0 
N2 N3- 4 e 0.1519(3) 0.1228(2) -.2383(3) 1. 0 0 
H1 H1+ 4 e 0.202(4) 0.207(3) -.465(3) 1. 0 0.053 
H2 H1+ 4 e 0.368(4) 0.211(2) -.423(3) 1. 0 0.038 
H3 H1+ 4 e 0.070(4) 0.139(3) -.300(4) 1. 0 0.078 
H4 H1+ 4 e 0.152(3) 0.090(2) -.155(3) 1. 0 0.027 
O2 O2- 4 e 0.7167(2) -.0347(1) -.0623(2) 1. 0 0 
C2 C4+ 4 e 0.7712(3) -.0341(2) -.1786(2) 1. 0 0 
N3 N3- 4 e 0.9197(3) -.0778(2) -.1747(3) 1. 0 0 
N4 N3- 4 e 0.6857(3) 0.0098(3) -.3070(3) 1. 0 0 
H5 H1+ 4 e 0.946(4) -.089(2) -.255(3) 1. 0 0.053 
H6 H1+ 4 e 0.970(4) -.121(3) -.091(3) 1. 0 0.061 
H7 H1+ 4 e 0.728(4) 0.029(3) -.338(4) 1. 0 0.071 
H8 H1+ 4 e 0.598(4) 0.047(3) -.305(4) 1. 0 0.076 
O3 O2- 4 e 0.6048(2) 0.1594(2) 0.1009(2) 1. 0 0 
H9 H1+ 4 e 0.661(4) 0.190(3) 0.051(3) 1. 0 0.049 
H10 H1+ 4 e 0.652(4) 0.164(2) 0.193(4) 1. 0 0.052 

loop_
_atom_site_aniso_label
_atom_site_aniso_type_symbol
_atom_site_aniso_U_11
_atom_site_aniso_U_22
_atom_site_aniso_U_33
_atom_site_aniso_U_12
_atom_site_aniso_U_13
_atom_site_aniso_U_23
Mg1 Mg2+ 0.0195(5) 0.0280(6) 0.0203(5) 0.0020(4) 0.0050(4) 0.0011(4)
Br1 Br1- 0.0303(1) 0.0556(2) 0.0281(1) 0.0040(1) 0.0039(1) -.0064(1)
O1 O2- 0.0236(8) 0.0452(10) 0.0293(8) 0.0106(7) 0.0053(7) 0.0049(7)
C1 C4+ 0.0266(11) 0.0233(12) 0.0237(10) 0.0015(9) 0.0051(9) 0.0015(9)
N1 N3- 0.0342(12) 0.0460(14) 0.0328(11) 0.0142(10) 0.0083(10) 0.0064(11)
N2 N3- 0.0245(10) 0.0558(15) 0.0364(12) 0.0184(11) 0.0067(9) 0.0039(10)
O2 O2- 0.0246(8) 0.0374(9) 0.0270(8) 0.0050(7) 0.0118(6) 0.0030(7)
C2 C4+ 0.0302(11) 0.0256(12) 0.0307(11) -.0064(9) 0.0127(9) -.0051(9)
N3 N3- 0.0343(11) 0.0462(14) 0.0451(13) -.0014(11) 0.0235(11) 0.0037(10)
N4 N3- 0.0520(15) 0.0901(21) 0.0280(12) 0.0123(13) 0.0195(11) 0.0248(15)
O3 O2- 0.0296(9) 0.0409(10) 0.0275(9) -.0047(8) 0.0076(8) -.0075(7)
#End of data_26011-ICSD


