data_110377-ICSD
#?2014 by Fachinformationszentrum Karlsruhe, and the U.S. Secretary of 
#Commerce on behalf of the United States.  All rights reserved.
_database_code_ICSD                110377
_audit_creation_date               2008/08/01
_audit_update_record               2012/02/01
_chemical_name_systematic
;
Bis(tetramethylammonium) Diaqualithiumhexacyanomanganate(III)
;
_chemical_formula_structural
;
((C H3)4 N)2 (Li Mn (C N)6 (H2 O)2)
;
_chemical_formula_sum              'C14 H28 Li1 Mn1 N8 O2'
_publ_section_title
;
Hydratisierte Cyanoelpasolithe: Bis(tetramethylammonium)-diaqua- 
lithium-hexacyano-metallate(III) des Mangans, Eisens und Cobalts
;
loop_
_citation_id
_citation_journal_abbrev
_citation_year
_citation_journal_volume
_citation_page_first
_citation_page_last
_citation_journal_id_ASTM
primary 'Zeitschrift fuer Naturforschung, B: Chemical Sciences'
 1988 43 1311 1318 ZNBSEN
_publ_author_name                  'Witzel, M.;Ziegler, B.;Babel, D.'
_cell_length_a                     17.240(8)
_cell_length_b                     8.829(8)
_cell_length_c                     16.429(9)
_cell_angle_alpha                  90
_cell_angle_beta                   119.32(5)
_cell_angle_gamma                  90
_cell_volume                       2180.35
_cell_formula_units_Z              4
_symmetry_space_group_name_H-M     'C 1 2/c 1'
_symmetry_Int_Tables_number        15
_refine_ls_R_factor_all            .053
loop_
_symmetry_equiv_pos_site_id
_symmetry_equiv_pos_as_xyz
  1	'x, -y, z+.5'
  2	'-x, -y, -z'
  3	'-x, y, -z+.5'
  4	'x, y, z'
  5	'x+.5, -y+.5, z+.5'
  6	'-x+.5, -y+.5, -z'
  7	'-x+.5, y+.5, -z+.5'
  8	'x+.5, y+.5, z'
loop_
_atom_type_symbol
_atom_type_oxidation_number
C2+	2
C4+	4
H1-	-1
H1+	1
Li1+	1
Mn3+	3
N3-	-3
O2-	-2
loop_
_atom_site_label
_atom_site_type_symbol
_atom_site_symmetry_multiplicity
_atom_site_Wyckoff_symbol
_atom_site_fract_x
_atom_site_fract_y
_atom_site_fract_z
_atom_site_occupancy
_atom_site_attached_hydrogens
_atom_site_U_iso_or_equiv
Mn1 Mn3+ 4 c 0.25 0.25 0 1. 0 .0211(7) 
C1 C2+ 8 f 0.3181(6) 0.2769(17) -0.0674(6) 1. 0 .034(5) 
N1 N3- 8 f 0.3607(5) 0.2902(12) -0.1024(6) 1. 0 .045(4) 
C2 C2+ 8 f 0.3472(7) 0.1130(14) 0.0913(8) 1. 0 .026(5) 
N2 N3- 8 f 0.4032(6) 0.0391(11) 0.1424(6) 1. 0 .041(4) 
C3 C2+ 8 f 0.1890(8) 0.0718(14) -0.0839(9) 1. 0 .027(5) 
N3 N3- 8 f 0.1519(7) -0.0259(12) -0.1338(7) 1. 0 .054(5) 
N4 N3- 8 f 0.1221(5) 0.2415(20) 0.6151(5) 1. 0 .042(3) 
C4 C4+ 8 f 0.0947(9) 0.2408(30) 0.5155(7) 1. 0 .161(9) 
H1 H1- 8 f 0.0358(9) 0.2787(30) 0.4807(7) 1. 0 .16 
H2 H1- 8 f 0.0968(9) 0.1401(30) 0.4963(7) 1. 0 .16 
H3 H1- 8 f 0.1338(9) 0.3029(30) 0.5047(7) 1. 0 .16 
C5 C4+ 8 f 0.0607(8) 0.1507(18) 0.6335(10) 1. 0 .099(8) 
H4 H1- 8 f 0.0024(8) 0.1913(18) 0.5995(10) 1. 0 .10 
H5 H1- 8 f 0.0796(8) 0.1529(18) 0.6983(10) 1. 0 .10 
H6 H1- 8 f 0.0607(8) 0.0491(18) 0.6144(10) 1. 0 .10 
C6 C4+ 8 f 0.2118(8) 0.1833(18) 0.6655(10) 1. 0 .16(1) 
H7 H1- 8 f 0.2311(8) 0.1830(18) 0.7305(10) 1. 0 .16 
H8 H1- 8 f 0.2501(8) 0.2458(18) 0.6539(10) 1. 0 .16 
H9 H1- 8 f 0.2131(8) 0.0830(18) 0.6454(10) 1. 0 .16 
C7 C4+ 8 f 0.1205(11) 0.4045(20) 0.6392(13) 1. 0 .18(1) 
H10 H1- 8 f 0.1378(11) 0.4131(20) 0.7035(13) 1. 0 .18 
H11 H1- 8 f 0.0621(11) 0.4435(20) 0.6026(13) 1. 0 .18 
H12 H1- 8 f 0.1607(11) 0.4604(20) 0.6268(13) 1. 0 .18 
Li1 Li1+ 4 e 0 0.4024(29) 0.25 1. 0 .04(1) 
O1 O2- 8 f 0.0641(5) 0.2563(13) 0.2214(5) 1. 0 .048(3) 
H13 H1+ 8 f 0.0772(77) 0.209(17) 0.1618(75) 1. 0 .13(4) 
H14 H1+ 8 f 0.1079(75) 0.203(16) 0.2596(81) 1. 0 .13(4) 

#End of data_110377-ICSD


