data_109763-ICSD
#?2014 by Fachinformationszentrum Karlsruhe, and the U.S. Secretary of 
#Commerce on behalf of the United States.  All rights reserved.
_database_code_ICSD                109763
_audit_creation_date               2008/02/01
_chemical_name_systematic
;
Dipotassium Cadmium Zirconium Tetraoxalate Octahydrate
;
_chemical_formula_structural       'K2 Cd Zr (C2 O4)4 (H2 O)8'
_chemical_formula_sum              'C8 H16 Cd1 K2 O24 Zr1'
_publ_section_title
;
Synthesis, crystal structure and thermal behaviour of Cd Zr K2 (C2 
O4)4 * 8(H2 O)
;
loop_
_citation_id
_citation_journal_abbrev
_citation_year
_citation_journal_volume
_citation_page_first
_citation_page_last
_citation_journal_id_ASTM
primary 'Journal of Materials Chemistry' 2002 12 2383 2389 JMACEP
_publ_author_name
;
Jeanneau, E.;Audebrand, N.;Louer, D.
;
_cell_length_a                     11.216(5)
_cell_length_b                     11.216(5)
_cell_length_c                     8.954(5)
_cell_angle_alpha                  90
_cell_angle_beta                   90
_cell_angle_gamma                  90
_cell_volume                       1126.4
_cell_formula_units_Z              2
_symmetry_space_group_name_H-M     'I -4'
_symmetry_Int_Tables_number        82
_refine_ls_R_factor_all            .0207
loop_
_symmetry_equiv_pos_site_id
_symmetry_equiv_pos_as_xyz
  1	'-y, x, -z'
  2	'y, -x, -z'
  3	'-x, -y, z'
  4	'x, y, z'
  5	'-y+.5, x+.5, -z+.5'
  6	'y+.5, -x+.5, -z+.5'
  7	'-x+.5, -y+.5, z+.5'
  8	'x+.5, y+.5, z+.5'
loop_
_atom_type_symbol
_atom_type_oxidation_number
C3+	3
Cd2+	2
H1+	1
K1+	1
O2-	-2
Zr4+	4
loop_
_atom_site_label
_atom_site_type_symbol
_atom_site_symmetry_multiplicity
_atom_site_Wyckoff_symbol
_atom_site_fract_x
_atom_site_fract_y
_atom_site_fract_z
_atom_site_occupancy
_atom_site_attached_hydrogens
_atom_site_U_iso_or_equiv
Cd1 Cd2+ 2 a 0.5 0.5 0.5 1. 0 0.01385(7) 
Zr1 Zr4+ 2 d 0.5 0 0.25 1. 0 0.00993(8) 
K1 K1+ 2 b 0.5 0.5 0 1. 0 0.0240(2) 
K2 K1+ 2 c 0.5 0 0.75 1. 0 0.0274(3) 
O1 O2- 8 g 0.4963(1) 0.8121(1) 0.1891(2) 1. 0 0.0209(3) 
O2 O2- 8 g 0.4884(1) 0.6219(1) 0.2668(1) 1. 0 0.0244(3) 
O3 O2- 8 g 0.5018(1) 0.7041(1) 0.5536(1) 1. 0 0.0231(3) 
O4 O2- 8 g 0.5043(1) 0.8889(1) 0.4583(1) 1. 0 0.0192(2) 
O5 O2- 8 g 0.7096(2) 0.6456(2) 0.0423(2) 1. 0 0.0478(5) 
O6 O2- 8 g 0.8587(2) 0.7066(2) 0.2921(2) 1. 0 0.0472(4) 
C1 C3+ 8 g 0.4947(1) 0.7294(1) 0.2884(2) 1. 0 0.0154(3) 
C2 C3+ 8 g 0.5004(1) 0.7763(1) 0.4489(2) 1. 0 0.0155(3) 
H1 H1+ 8 g 0.751(2) 0.595(2) 0.991(5) 1. 0 0.050 
H2 H1+ 8 g 0.743(2) 0.654(3) 0.120(3) 1. 0 0.050 
H3 H1+ 8 g 0.828(3) 0.743(2) 0.367(3) 1. 0 0.050 
H4 H1+ 8 g 0.911(2) 0.754(3) 0.249(4) 1. 0 0.050 

#End of data_109763-ICSD


