data_109940-ICSD
#?2014 by Fachinformationszentrum Karlsruhe, and the U.S. Secretary of 
#Commerce on behalf of the United States.  All rights reserved.
_database_code_ICSD                109940
_audit_creation_date               2008/02/01
_chemical_name_systematic          'Sodium Triformatocadmate'
_chemical_formula_structural       'Na (Cd (C H O O)3)'
_chemical_formula_sum              'C3 H3 Cd1 Na1 O6'
_publ_section_title
;
Crystal structure of sodium cadmium triformate (Nd Cd (H C O O)3)
;
loop_
_citation_id
_citation_journal_abbrev
_citation_year
_citation_journal_volume
_citation_page_first
_citation_page_last
_citation_journal_id_ASTM
primary 'Koordinatsionnaya Khimiya (= Coordination Chemistry (USSR))'
 1983 9 418 421 KOKHDC
2 'Materials Research Bulletin' 1982 17 627 632 MRBUAC
_publ_author_name
;
Antsyshkina, A.S.;Porai Koshits, M.A.;Ostrikova, V.N.
;
_cell_length_a                     6.396(2)
_cell_length_b                     7.275(3)
_cell_length_c                     14.120(4)
_cell_angle_alpha                  90
_cell_angle_beta                   90
_cell_angle_gamma                  90
_cell_volume                       657.02
_cell_formula_units_Z              4
_symmetry_space_group_name_H-M     'P c c a'
_symmetry_Int_Tables_number        54
_refine_ls_R_factor_all            .033
loop_
_symmetry_equiv_pos_site_id
_symmetry_equiv_pos_as_xyz
  1	'x, -y, z+.5'
  2	'-x+.5, y, z+.5'
  3	'x+.5, y, -z'
  4	'-x, -y, -z'
  5	'-x, y, -z+.5'
  6	'x+.5, -y, -z+.5'
  7	'-x+.5, -y, z'
  8	'x, y, z'
loop_
_atom_type_symbol
_atom_type_oxidation_number
C2+	2
Cd2+	2
H1+	1
Na1+	1
O2-	-2
loop_
_atom_site_label
_atom_site_type_symbol
_atom_site_symmetry_multiplicity
_atom_site_Wyckoff_symbol
_atom_site_fract_x
_atom_site_fract_y
_atom_site_fract_z
_atom_site_occupancy
_atom_site_attached_hydrogens
Cd1 Cd2+ 4 d -0.25000 0.00000 0.42884 1. 0 
Na1 Na1+ 4 e -0.25000 0.50000 0.27970 1. 0 
O1 O2- 8 f -0.39360 0.18120 0.31190 1. 0 
O2 O2- 8 f -0.05920 -0.15770 0.54220 1. 0 
O3 O2- 8 f -0.03880 -0.38580 0.64570 1. 0 
C1 C2+ 4 c -0.50000 0.09910 0.25000 1. 0 
C2 C2+ 8 f -0.13550 -0.29600 0.58640 1. 0 
H1 H1+ 4 c -0.50000 -0.04240 0.25000 1. 0 
H2 H1+ 8 f -0.28690 -0.33430 0.57140 1. 0 

#End of data_109940-ICSD


