data_260408-ICSD
#?2014 by Fachinformationszentrum Karlsruhe, and the U.S. Secretary of 
#Commerce on behalf of the United States.  All rights reserved.
_database_code_ICSD                260408
_audit_creation_date               2009/08/01
_chemical_name_systematic
;
Potassium Aquaterbium(III) Oxalate Sulfate
;
_chemical_formula_structural       'K Tb (S O4) (C2 O4) H2 O'
_chemical_formula_sum              'C2 H2 K1 O9 S1 Tb1'
_publ_section_title
;
Potassium aquaterbium(III) oxalate sulfate
;
loop_
_citation_id
_citation_journal_abbrev
_citation_year
_citation_journal_volume
_citation_journal_issue
_citation_page_first
_citation_page_last
_citation_journal_id_ASTM
primary 'Acta Crystallographica, Section E. Structure Reports Online'
 2009 65 7 i48 i48 ACSEBH
_publ_author_name
;
Sun Yaguang;Guo Meiyan;Xiong Gang;Jiang Bing;Wang Lei
;
_cell_length_a                     6.5274(13)
_cell_length_b                     8.5072(17)
_cell_length_c                     14.591(4)
_cell_angle_alpha                  90.00
_cell_angle_beta                   112.65(3)
_cell_angle_gamma                  90.00
_cell_volume                       747.75
_cell_formula_units_Z              4
_symmetry_space_group_name_H-M     'P 1 21/c 1'
_symmetry_Int_Tables_number        14
_refine_ls_R_factor_all            .0233
loop_
_symmetry_equiv_pos_site_id
_symmetry_equiv_pos_as_xyz
  1	'x, -y+.5, z+.5'
  2	'-x, -y, -z'
  3	'-x, y+.5, -z+.5'
  4	'x, y, z'
loop_
_atom_type_symbol
_atom_type_oxidation_number
C3+	3
H1+	1
K1+	1
O2-	-2
S6+	6
Tb3+	3
loop_
_atom_site_label
_atom_site_type_symbol
_atom_site_symmetry_multiplicity
_atom_site_Wyckoff_symbol
_atom_site_fract_x
_atom_site_fract_y
_atom_site_fract_z
_atom_site_occupancy
_atom_site_attached_hydrogens
_atom_site_U_iso_or_equiv
Tb1 Tb3+ 4 e 0.33208(4) 0.24112(3) 0.086605(17) 1 0 0.00425(11) 
K1 K1+ 4 e 0.9670(2) -0.15405(14) 0.19899(9) 1 0 0.0144(3) 
S1 S6+ 4 e 0.7406(2) 0.16467(15) -0.02448(9) 1 0 0.0057(3) 
O1 O2- 4 e 0.2682(6) 0.1255(4) 0.2251(3) 1 0 0.0079(8) 
O2 O2- 4 e 0.6044(6) 0.4446(4) 0.1557(2) 1 0 0.0074(8) 
O3 O2- 4 e 0.2189(6) 0.4466(4) 0.1717(2) 1 0 0.0079(8) 
O4 O2- 4 e 0.6523(6) 0.1083(4) 0.1984(3) 1 0 0.0065(8) 
O5 O2- 4 e 0.5568(7) 0.2364(4) -0.0040(3) 1 0 0.0077(8) 
O6 O2- 4 e 0.7540(6) -0.0053(4) -0.0015(3) 1 0 0.0080(8) 
O7 O2- 4 e 0.9493(7) 0.2388(4) 0.0409(3) 1 0 0.0096(9) 
O8 O2- 4 e 0.7035(7) 0.1876(5) -0.1285(3) 1 0 0.0119(9) 
O9 O2- 4 e 0.1774(6) 0.4070(4) -0.0544(3) 1 0 0.0072(8) 
H1 H1+ 4 e 0.285(8) 0.475(6) -0.063(5) 1 0 0.04(2) 
H2 H1+ 4 e 0.047(6) 0.448(9) -0.107(5) 1 0 0.13(4) 
C1 C3+ 4 e 0.4137(9) 0.0364(6) 0.2801(4) 1 0 0.0043(11) 
C2 C3+ 4 e 0.3644(9) 0.5312(6) 0.2329(4) 1 0 0.0052(11) 

loop_
_atom_site_aniso_label
_atom_site_aniso_type_symbol
_atom_site_aniso_U_11
_atom_site_aniso_U_22
_atom_site_aniso_U_33
_atom_site_aniso_U_12
_atom_site_aniso_U_13
_atom_site_aniso_U_23
Tb1 Tb3+ 0.00438(17) 0.00457(17) 0.00411(16) 0.00031(11) 0.00197(12) 
0.00024(10)
K1 K1+ 0.0141(8) 0.0162(7) 0.0164(7) -0.0038(6) 0.0099(6) -0.0061(5)
S1 S6+ 0.0054(8) 0.0063(7) 0.0061(7) -0.0002(6) 0.0029(6) -0.0010(5)
O1 O2- 0.006(2) 0.009(2) 0.010(2) 0.0033(17) 0.0045(18) 0.0001(15)
O2 O2- 0.010(2) 0.0070(19) 0.008(2) -0.0028(17) 0.0067(18) -0.0041(16)
O3 O2- 0.008(2) 0.009(2) 0.006(2) -0.0019(17) 0.0013(18) -0.0020(15)
O4 O2- 0.0068(12) 0.0062(11) 0.0066(11) -0.0001(9) 0.0028(9) -0.0002(8)
O5 O2- 0.011(2) 0.0047(19) 0.013(2) 0.0011(16) 0.0096(18) -0.0002(14)
O6 O2- 0.011(2) 0.0035(19) 0.010(2) -0.0010(17) 0.0048(17) -0.0014(14)
O7 O2- 0.008(2) 0.009(2) 0.012(2) 0.0002(17) 0.0041(18) 0.0008(16)
O8 O2- 0.016(3) 0.014(2) 0.008(2) -0.0015(19) 0.0071(19) 0.0010(16)
O9 O2- 0.0063(12) 0.0077(12) 0.0083(11) -0.0003(9) 0.0036(9) 0.0017(8)
C1 C3+ 0.0048(14) 0.0036(14) 0.0043(13) 0.0005(9) 0.0015(10) -0.0011(9)
C2 C3+ 0.0052(14) 0.0046(14) 0.0057(14) 0.0003(9) 0.0019(10) 0.0010(9)
#End of data_260408-ICSD


