data_49805-ICSD
#?2014 by Fachinformationszentrum Karlsruhe, and the U.S. Secretary of 
#Commerce on behalf of the United States.  All rights reserved.
_database_code_ICSD                49805
_audit_creation_date               1987/01/31
_audit_update_record               2012/02/01
_chemical_name_systematic
;
Potassium Biuretothiotrioxophosphate(V) Hydrate
;
_chemical_formula_structural       'K (C2 H3 N3 (P O3 S)) (H2 O)'
_chemical_formula_sum              'C2 H5 K1 N3 O4 P1 S1'
_publ_section_title
;
Darstellung und Kristallstrukturuntersuchungen einiger 
Biureto(thio)phosphate
;
loop_
_citation_id
_citation_journal_abbrev
_citation_year
_citation_journal_volume
_citation_page_first
_citation_page_last
_citation_journal_id_ASTM
primary 'Zeitschrift fuer Anorganische und Allgemeine Chemie (1950) (DE)'
 1986 540 307 318 ZAACAB
_publ_author_name                  'Neels, J.;Jost, K.H.;Meisel, M.'
_cell_length_a                     6.091(4)
_cell_length_b                     6.848(4)
_cell_length_c                     10.619(8)
_cell_angle_alpha                  87.42(3)
_cell_angle_beta                   102.64(2)
_cell_angle_gamma                  102.70(2)
_cell_volume                       421.62
_cell_formula_units_Z              2
_symmetry_space_group_name_H-M     'P -1'
_symmetry_Int_Tables_number        2
_refine_ls_R_factor_all            .042
loop_
_symmetry_equiv_pos_site_id
_symmetry_equiv_pos_as_xyz
  1	'-x, -y, -z'
  2	'x, y, z'
loop_
_atom_type_symbol
_atom_type_oxidation_number
C4+	4
H1+	1
K1+	1
N3-	-3
O2-	-2
P5+	5
S2-	-2
loop_
_atom_site_label
_atom_site_type_symbol
_atom_site_symmetry_multiplicity
_atom_site_Wyckoff_symbol
_atom_site_fract_x
_atom_site_fract_y
_atom_site_fract_z
_atom_site_occupancy
_atom_site_attached_hydrogens
_atom_site_B_iso_or_equiv
K1 K1+ 2 i 0.0200(3) 0.8231(3) 0.3203(2) 1. 0 0 
P1 P5+ 2 i 0.5604(4) 0.2586(3) 0.2699(2) 1. 0 0 
N1 N3- 2 i 0.5156(11) 0.1873(9) 0.1135(6) 1. 0 0 
N2 N3- 2 i 0.4600(11) 0.4719(9) 0.2436(6) 1. 0 0 
N3 N3- 2 i 0.2095(12) 0.3533(9) 0.0461(6) 1. 0 0 
C1 C4+ 2 i 0.2838(14) 0.4941(11) 0.1472(7) 1. 0 0 
C2 C4+ 2 i 0.3306(14) 0.2127(11) 0.0258(7) 1. 0 0 
S1 S2- 2 i 0.8857(4) 0.3132(3) 0.3493(2) 1. 0 0 
O1 O2- 2 i 0.4056(9) 0.1104(7) 0.3362(4) 1. 0 0 
O2 O2- 2 i 0.1837(9) 0.6327(7) 0.1419(5) 1. 0 0 
O3 O2- 2 i 0.7376(10) 0.8798(8) 0.0794(5) 1. 0 0 
O4 O2- 2 i 0.6177(10) 0.7930(8) 0.4176(5) 1. 0 0 
H1 H1+ 2 i 0.6 0.1 0.1 1. 0 2.4 
H2 H1+ 2 i 0.5 0.55 0.3 1. 0 2.4 
H3 H1+ 2 i 0.9 0.6 0.02 1. 0 2.4 
H4 H1+ 2 i 0.34 0.18 0.5 1. 0 2.4 
H5 H1+ 2 i 0.55 0.9 0.4 1. 0 2.4 

loop_
_atom_site_aniso_label
_atom_site_aniso_type_symbol
_atom_site_aniso_B_11
_atom_site_aniso_B_22
_atom_site_aniso_B_33
_atom_site_aniso_B_12
_atom_site_aniso_B_13
_atom_site_aniso_B_23
K1 K1+ 2.41(6) 2.90(6) 3.19(7) 0.32(5) 0.91(5) -.33(5)
P1 P5+ 1.87(7) 1.81(6) 1.75(6) 0.74(5) 0.21(5) -.16(5)
N1 N3- 2.5(2) 2.7(2) 1.5(2) 1.6(2) -.1(2) -.3(2)
N2 N3- 2.1(2) 1.6(2) 2.2(2) 0.9(2) 0.2(2) 0.0(2)
N3 N3- 2.8(2) 2.6(2) 2.6(2) 1.7(2) 0.2(2) -.9(2)
C1 C4+ 2.2(3) 2.0(2) 2.4(3) 0.8(2) 0.9(2) 0.4(2)
C2 C4+ 2.9(3) 1.9(3) 2.3(2) 1.0(2) 0.6(2) -.3(2)
S1 S2- 1.83(7) 2.84(7) 3.59(8) 0.57(6) -.06(6) -.03(6)
O1 O2- 2.2(2) 2.2(2) 2.4(2) 0.3(1) 0.8(2) 0.4(1)
O2 O2- 2.9(2) 2.1(2) 2.8(2) 1.6(2) 0.4(2) -.4(1)
O3 O2- 3.3(2) 3.7(2) 2.2(2) 2.3(2) -.3(2) -1.1(2)
O4 O2- 3.3(2) 2.4(2) 2.7(2) 0.8(2) 0.8(2) -.5(1)
#End of data_49805-ICSD


