data_67435-ICSD
#?2014 by Fachinformationszentrum Karlsruhe, and the U.S. Secretary of 
#Commerce on behalf of the United States.  All rights reserved.
_database_code_ICSD                67435
_audit_creation_date               1992/01/20
_audit_update_record               2006/04/01
_chemical_name_systematic
;
Sodium Aluminium Carbonate Dihydroxide
;
_chemical_formula_structural       'Na Al (C O3) (O H)2'
_chemical_formula_sum              'C1 H2 Al1 Na1 O5'
_chemical_name_mineral             Dawsonite
_publ_section_title
;
Crystal structure of dawsonite, Na Al (C O3) (O H)2 and its first 
discovery in the Khibiny alkaline massiv.
;
loop_
_citation_id
_citation_journal_abbrev
_citation_year
_citation_journal_volume
_citation_page_first
_citation_page_last
_citation_journal_id_ASTM
primary 'Vestnik Moskovskogo Universiteta, Geologiya' 1987 42 74 77 VMUGAR
_publ_author_name
;
Chinh Le Thy;Pobedimskaya, E.A.;Khomyakov, A.P.
;
_cell_length_a                     6.762(2)
_cell_length_b                     10.428(6)
_cell_length_c                     5.593(2)
_cell_angle_alpha                  90.
_cell_angle_beta                   90.
_cell_angle_gamma                  90.
_cell_volume                       394.39
_cell_formula_units_Z              4
_symmetry_space_group_name_H-M     'I 2 a m'
_symmetry_Int_Tables_number        46
_refine_ls_R_factor_all            .17
loop_
_symmetry_equiv_pos_site_id
_symmetry_equiv_pos_as_xyz
  1	'x, y, -z+.5'
  2	'x, -y, z+.5'
  3	'x, -y, -z'
  4	'x, y, z'
  5	'x+.5, y+.5, -z'
  6	'x+.5, -y+.5, z'
  7	'x+.5, -y+.5, -z+.5'
  8	'x+.5, y+.5, z+.5'
loop_
_atom_type_symbol
_atom_type_oxidation_number
Al3+	3
C4+	4
H1+	1
Na1+	1
O2-	-2
loop_
_atom_site_label
_atom_site_type_symbol
_atom_site_symmetry_multiplicity
_atom_site_Wyckoff_symbol
_atom_site_fract_x
_atom_site_fract_y
_atom_site_fract_z
_atom_site_occupancy
_atom_site_attached_hydrogens
_atom_site_B_iso_or_equiv
Al1 Al3+ 4 a -.0040(17) 0 0 1. 0 0.69(4) 
Na1 Na1+ 4 b 0.7401(32) 0.7495(25) 0.25 1. 0 1.87(4) 
C1 C4+ 4 b -.0180(42) 0.7514(9) 0.75 1. 0 0.77(16) 
O1 O2- 4 b -.0150(44) 0.3675(7) 0.25 1. 0 1.42(14) 
O2 O2- 8 c -.0015(25) 0.8149(4) 0.5488(8) 1. 0 1.32(9) 
O3 O2- 4 b 0.1682(12) -.0222(7) 0.25 1. 0 0.31(12) 
O4 O2- 4 b 0.8004(13) -.0295(9) 0.25 1. 0 1.68(16) 
H1 H1+ 4 b 0.2264 0.4837 0.25 1. 0 0 
H2 H1+ 4 b 0.7649 0.4659 0.25 1. 0 0 

#End of data_67435-ICSD


