data_262116-ICSD
#?2014 by Fachinformationszentrum Karlsruhe, and the U.S. Secretary of 
#Commerce on behalf of the United States.  All rights reserved.
_database_code_ICSD                262116
_audit_creation_date               2012/02/01
_chemical_name_systematic
;
Dipotassium Aquaoxonium Uranyl(VI)hydrogenselenate(IV) Bis(oxalate)
;
_chemical_formula_structural
;
K2 (H5 O2) (U O2 (H Se O3) (C2 O4)2)
;
_chemical_formula_sum              'C4 H6 K2 O15 Se1 U1'
_publ_section_title
;
Synthesis and X-ray structural investigation of K2 (H5 O2) [U O2 (C2 
O4)2 (H Se O3)]
;
loop_
_citation_id
_citation_journal_abbrev
_citation_year
_citation_journal_volume
_citation_journal_issue
_citation_page_first
_citation_page_last
_citation_journal_id_ASTM
primary Kristallografiya 2011 56 3 486 489 KRISAJ
2 'Crystallography Reports' 2011 56 3 451 455 CYSTE3
_publ_author_name
;
Pushkin, D.V.;Peresypkina, E.V.;Serezhkina, L.B.;Marukhnov, 
A.V.;Virovets, A.V.
;
_cell_length_a                     6.7665(4)
_cell_length_b                     8.8850(4)
_cell_length_c                     12.3147(7)
_cell_angle_alpha                  94.734(2)
_cell_angle_beta                   90.156(2)
_cell_angle_gamma                  92.108(2)
_cell_volume                       737.33
_cell_formula_units_Z              2
_symmetry_space_group_name_H-M     'P -1'
_symmetry_Int_Tables_number        2
_refine_ls_R_factor_all            .0192
loop_
_symmetry_equiv_pos_site_id
_symmetry_equiv_pos_as_xyz
  1	'-x, -y, -z'
  2	'x, y, z'
loop_
_atom_type_symbol
_atom_type_oxidation_number
C3+	3
H1+	1
K1+	1
O2-	-2
Se4+	4
U6+	6
loop_
_atom_site_label
_atom_site_type_symbol
_atom_site_symmetry_multiplicity
_atom_site_Wyckoff_symbol
_atom_site_fract_x
_atom_site_fract_y
_atom_site_fract_z
_atom_site_occupancy
_atom_site_attached_hydrogens
_atom_site_U_iso_or_equiv
U1 U6+ 2 i 0.30147(2) 0.246049(14) 0.273861(11) 1 0 0.00787(5) 
Se1 Se4+ 2 i 0.28091(5) 0.67122(4) 0.29889(3) 1 0 0.01049(9) 
C1 C3+ 2 i 0.2542(6) 0.0389(4) 0.0435(3) 1 0 0.0121(8) 
C2 C3+ 2 i 0.3275(6) 0.1971(4) 0.0091(3) 1 0 0.0111(8) 
C3 C3+ 2 i 0.2889(6) 0.1925(4) 0.5299(3) 1 0 0.0114(8) 
C4 C3+ 2 i 0.2377(6) 0.0332(4) 0.4737(3) 1 0 0.0121(8) 
O1 O2- 2 i 0.0430(4) 0.2764(3) 0.2690(2) 1 0 0.0130(6) 
O2 O2- 2 i 0.5592(4) 0.2125(3) 0.2790(2) 1 0 0.0130(6) 
O3 O2- 2 i 0.2322(4) 0.0316(3) 0.1446(2) 1 0 0.0121(6) 
O4 O2- 2 i 0.3528(4) 0.2976(3) 0.0896(2) 1 0 0.0116(6) 
O5 O2- 2 i 0.2242(4) -0.0644(3) -0.0291(2) 1 0 0.0174(6) 
O6 O2- 2 i 0.3507(4) 0.2159(3) -0.0878(2) 1 0 0.0151(6) 
O7 O2- 2 i 0.2299(4) 0.0249(3) 0.3700(2) 1 0 0.0115(6) 
O8 O2- 2 i 0.3042(4) 0.2972(3) 0.4642(2) 1 0 0.0141(6) 
O9 O2- 2 i 0.3100(4) 0.2103(3) 0.6287(2) 1 0 0.0146(6) 
O10 O2- 2 i 0.2119(4) -0.0731(3) 0.5316(2) 1 0 0.0172(6) 
O11 O2- 2 i 0.1682(4) 0.6614(3) 0.4271(2) 1 0 0.0169(6) 
H1 H1+ 2 i 0.189(9) 0.742(6) 0.452(5) 1 0 0.050 
O12 O2- 2 i 0.0777(4) 0.6423(3) 0.2220(2) 1 0 0.0163(6) 
O13 O2- 2 i 0.3827(4) 0.4999(3) 0.2909(2) 1 0 0.0122(6) 
K1 K1+ 2 i 0.16466(13) 0.01424(9) 0.75954(7) 1 0 0.01229(17) 
K2 K1+ 2 i 0.21258(13) 0.50857(9) 0.65252(7) 1 0 0.01487(18) 
O14 O2- 2 i 0.3024(5) 0.5172(3) 0.8901(2) 1 0 0.0166(6) 
H2 H1+ 2 i 0.307(9) 0.423(7) 0.891(5) 1 0 0.050 
H3 H1+ 2 i 0.409(9) 0.572(7) 0.898(5) 1 0 0.050 
O15 O2- 2 i 0.0925(5) 0.6747(3) 0.0241(3) 1 0 0.0166(6) 
H4 H1+ 2 i 0.175(9) 0.616(7) -0.014(5) 1 0 0.050 
H5 H1+ 2 i 0.094(9) 0.661(6) 0.091(5) 1 0 0.050 
H6 H1+ 2 i 0.151(8) 0.790(7) 0.013(5) 1 0 0.050 

loop_
_atom_site_aniso_label
_atom_site_aniso_type_symbol
_atom_site_aniso_U_11
_atom_site_aniso_U_22
_atom_site_aniso_U_33
_atom_site_aniso_U_12
_atom_site_aniso_U_13
_atom_site_aniso_U_23
U1 U6+ 0.00889(8) 0.00691(7) 0.00764(8) 0.00053(5) -0.00040(5) -0.00048(5)
Se1 Se4+ 0.01061(19) 0.00749(18) 0.0133(2) 0.00010(14) -0.00109(15) 
0.00051(14)
C1 C3+ 0.012(2) 0.0118(19) 0.013(2) 0.0029(15) 0.0004(16) 0.0028(15)
C2 C3+ 0.0088(19) 0.0131(19) 0.012(2) 0.0020(14) -0.0018(15) 0.0022(15)
C3 C3+ 0.0110(19) 0.0102(18) 0.013(2) 0.0050(15) 0.0012(15) 0.0009(15)
C4 C3+ 0.0093(19) 0.0125(19) 0.015(2) 0.0044(15) -0.0010(15) 0.0014(15)
O1 O2- 0.0119(14) 0.0119(13) 0.0152(15) 0.0008(11) -0.0006(11) 0.0001(11)
O2 O2- 0.0120(14) 0.0107(13) 0.0156(15) -0.0001(11) 0.0001(11) -0.0027(11)
O3 O2- 0.0159(15) 0.0132(13) 0.0072(14) 0.0002(11) 0.0004(11) 0.0003(10)
O4 O2- 0.0178(15) 0.0078(13) 0.0089(14) -0.0016(10) 0.0005(11) -0.0003(10)
O5 O2- 0.0301(17) 0.0094(13) 0.0120(15) 0.0001(12) -0.0005(13) -0.0031(11)
O6 O2- 0.0208(16) 0.0144(14) 0.0102(14) -0.0029(11) 0.0012(12) 0.0025(11)
O7 O2- 0.0183(15) 0.0084(13) 0.0076(13) 0.0005(11) -0.0005(11) -0.0010(10)
O8 O2- 0.0242(16) 0.0091(13) 0.0084(14) -0.0003(11) 0.0012(12) -0.0015(10)
O9 O2- 0.0223(16) 0.0144(14) 0.0066(14) -0.0012(11) -0.0012(12) -0.0010(11)
O10 O2- 0.0294(17) 0.0083(13) 0.0137(15) 0.0002(12) -0.0019(13) 0.0007(11)
O11 O2- 0.0205(16) 0.0123(14) 0.0172(16) 0.0016(12) 0.0007(12) -0.0024(12)
O12 O2- 0.0122(15) 0.0246(15) 0.0123(14) -0.0014(12) -0.0057(11) 0.0032(12)
O13 O2- 0.0125(14) 0.0085(13) 0.0152(15) -0.0004(10) -0.0005(11) 
-0.0009(11)
K1 K1+ 0.0159(4) 0.0125(4) 0.0082(4) -0.0018(3) -0.0005(3) -0.0001(3)
K2 K1+ 0.0118(4) 0.0111(4) 0.0210(5) 0.0022(3) -0.0015(4) -0.0034(3)
O14 O2- 0.0199(16) 0.0116(14) 0.0182(16) -0.0018(12) 0.0039(13) 0.0014(12)
O15 O2- 0.0189(16) 0.0182(16) 0.0125(15) -0.0005(12) 0.0009(12) 0.0014(12)
#End of data_262116-ICSD


