data_262908-ICSD
#?2014 by Fachinformationszentrum Karlsruhe, and the U.S. Secretary of 
#Commerce on behalf of the United States.  All rights reserved.
_database_code_ICSD                262908
_audit_creation_date               2012/08/01
_chemical_name_systematic          'Sodium Europium Aqua Phosphonate'
_chemical_formula_structural       'Na Eu (H2 O) (C H2 (P O3)2)'
_chemical_formula_sum              'C1 H4 Eu1 Na1 O7 P2'
_publ_section_title
;
Periodic trends in lanthanide and actinide phosphonates: 
discontinuity between plutonium and americium
;
loop_
_citation_id
_citation_journal_abbrev
_citation_year
_citation_journal_volume
_citation_journal_issue
_citation_page_first
_citation_page_last
_citation_journal_id_ASTM
primary 'Inorganic Chemistry' 2012 51 12 6906 6915 INOCAJ
_publ_author_name
;
Diwu Juan;Grant, D.J.;Wang Shuao;Gagliardi, L.;Albrecht-Schmitt, T.E.
;
_cell_length_a                     6.6851(15)
_cell_length_b                     14.998(3)
_cell_length_c                     6.6653(15)
_cell_angle_alpha                  90.00
_cell_angle_beta                   90.522(3)
_cell_angle_gamma                  90.00
_cell_volume                       668.26
_cell_formula_units_Z              4
_symmetry_space_group_name_H-M     'P 1 21/c 1'
_symmetry_Int_Tables_number        14
_refine_ls_R_factor_all            .0234
loop_
_symmetry_equiv_pos_site_id
_symmetry_equiv_pos_as_xyz
  1	'x, -y+.5, z+.5'
  2	'-x, -y, -z'
  3	'-x, y+.5, -z+.5'
  4	'x, y, z'
loop_
_atom_type_symbol
_atom_type_oxidation_number
C4+	4
Eu3+	3
H1-	-1
H1+	1
Na1+	1
O2-	-2
P3+	3
loop_
_atom_site_label
_atom_site_type_symbol
_atom_site_symmetry_multiplicity
_atom_site_Wyckoff_symbol
_atom_site_fract_x
_atom_site_fract_y
_atom_site_fract_z
_atom_site_occupancy
_atom_site_attached_hydrogens
_atom_site_U_iso_or_equiv
Eu1 Eu3+ 4 e 0.82694(4) 0.598693(16) 0.10285(4) 1 0 0.00490(9) 
P1 P3+ 4 e 0.67634(19) 0.40311(9) 0.13360(19) 1 0 0.0044(3) 
P2 P3+ 4 e 0.97150(19) 0.66044(8) -0.39519(19) 1 0 0.0044(3) 
Na1 Na1+ 4 e 1.3064(3) 0.52833(14) -0.6352(3) 1 0 0.0086(4) 
O1 O2- 4 e 0.8575(5) 0.6007(2) -0.2518(5) 1 0 0.0068(7) 
O2 O2- 4 e 0.6360(5) 0.4817(2) 0.2762(5) 1 0 0.0071(7) 
O3 O2- 4 e 0.8260(5) 0.4381(2) -0.0229(5) 1 0 0.0062(7) 
O4 O2- 4 e 1.0111(5) 0.6129(2) -0.5935(5) 1 0 0.0058(7) 
O5 O2- 4 e 0.4919(5) 0.3649(2) 0.0315(5) 1 0 0.0059(7) 
O6 O2- 4 e 0.8698(5) 0.7507(2) -0.4307(5) 1 0 0.0059(7) 
O7 O2- 4 e 0.5706(5) 0.6660(2) 0.3541(5) 1 0 0.0081(7) 
C1 C4+ 4 e 0.7902(7) 0.3146(3) 0.2772(7) 1 0 0.0068(10) 
H1 H1- 4 e 0.8085 0.2627 0.1875 1 0 0.008 
H2 H1- 4 e 0.6957 0.2964 0.3832 1 0 0.008 
H3 H1+ 4 e 0.492(7) 0.680(4) 0.251(6) 1 0 0.008 
H4 H1+ 4 e 0.624(8) 0.709(3) 0.428(7) 1 0 0.008 

loop_
_atom_site_aniso_label
_atom_site_aniso_type_symbol
_atom_site_aniso_U_11
_atom_site_aniso_U_22
_atom_site_aniso_U_33
_atom_site_aniso_U_12
_atom_site_aniso_U_13
_atom_site_aniso_U_23
Eu1 Eu3+ 0.00534(13) 0.00458(14) 0.00479(13) -0.00013(10) 0.00024(9) 
-0.00008(10)
P1 P3+ 0.0046(6) 0.0045(6) 0.0041(6) -0.0010(5) 0.0003(5) 0.0002(5)
P2 P3+ 0.0041(6) 0.0039(6) 0.0051(6) 0.0008(5) 0.0004(5) -0.0005(5)
Na1 Na1+ 0.0071(10) 0.0122(11) 0.0065(10) 0.0019(8) 0.0001(8) -0.0022(8)
O1 O2- 0.0063(17) 0.0079(18) 0.0063(17) -0.0037(14) 0.0004(14) 0.0028(15)
O2 O2- 0.0045(17) 0.0097(19) 0.0071(18) 0.0015(14) 0.0002(14) -0.0011(14)
O3 O2- 0.0061(18) 0.0063(17) 0.0061(17) -0.0016(14) 0.0001(14) 0.0011(14)
O4 O2- 0.0072(18) 0.0053(18) 0.0050(17) -0.0001(14) 0.0013(14) 0.0009(13)
O5 O2- 0.0057(17) 0.0042(17) 0.0078(17) 0.0002(14) 0.0000(14) -0.0017(14)
O6 O2- 0.0042(17) 0.0048(18) 0.0086(17) 0.0019(13) -0.0003(13) 0.0013(14)
O7 O2- 0.0074(19) 0.0083(19) 0.0086(18) -0.0003(15) -0.0026(14) -0.0022(15)
C1 C4+ 0.009(3) 0.005(2) 0.006(2) 0.0017(19) -0.002(2) -0.0006(19)
#End of data_262908-ICSD


