data_159924-ICSD
#?2014 by Fachinformationszentrum Karlsruhe, and the U.S. Secretary of 
#Commerce on behalf of the United States.  All rights reserved.
_database_code_ICSD                159924
_audit_creation_date               2008/08/01
_chemical_name_systematic
;
Dipotassium Iron Oxalate Hydrogenphosphate(V) Dihydrate
;
_chemical_formula_structural       'K2 Fe (C2 O4) (H P O4) (H2 O)2'
_chemical_formula_sum              'C2 H5 Fe1 K2 O10 P1'
_publ_section_title
;
K2 Fe (C2 O4) (H P O4) (O H2) * (H2 O): a layered oxalatophosphate 
hybrid material
;
loop_
_citation_id
_citation_journal_abbrev
_citation_year
_citation_journal_volume
_citation_page_first
_citation_page_last
_citation_journal_id_ASTM
primary 'Inorganica Chimica Acta' 2008 361 1510 1514 ICHAA3
_publ_author_name
;
Yang Xin;Li Jiang;Hou Yawei;Shi Shenyi;Shan Yongkui
;
_cell_length_a                     11.880(2)
_cell_length_b                     10.384(2)
_cell_length_c                     15.337(3)
_cell_angle_alpha                  90.00
_cell_angle_beta                   90.00
_cell_angle_gamma                  90.00
_cell_volume                       1892
_cell_formula_units_Z              8
_symmetry_space_group_name_H-M     'P b c a'
_symmetry_Int_Tables_number        61
_refine_ls_R_factor_all            .0403
loop_
_symmetry_equiv_pos_site_id
_symmetry_equiv_pos_as_xyz
  1	'x+.5, y, -z+.5'
  2	'x, -y+.5, z+.5'
  3	'-x+.5, y+.5, z'
  4	'-x, -y, -z'
  5	'-x+.5, -y, z+.5'
  6	'-x, y+.5, -z+.5'
  7	'x+.5, -y+.5, -z'
  8	'x, y, z'
loop_
_atom_type_symbol
_atom_type_oxidation_number
C3+	3
Fe2+	2
H1+	1
K1+	1
O2-	-2
P5+	5
loop_
_atom_site_label
_atom_site_type_symbol
_atom_site_symmetry_multiplicity
_atom_site_Wyckoff_symbol
_atom_site_fract_x
_atom_site_fract_y
_atom_site_fract_z
_atom_site_occupancy
_atom_site_attached_hydrogens
_atom_site_U_iso_or_equiv
K1 K1+ 8 c 0.66835(9) 0.20036(10) 0.63172(6) 1 0 0.0245(3) 
K2 K1+ 8 c 0.66834(8) 0.32695(9) 0.38349(6) 1 0 0.0232(2) 
Fe1 Fe2+ 8 c 0.42000(5) 0.10354(5) 0.26293(3) 1 0 0.01259(16) 
C1 C3+ 8 c 0.4116(3) 0.3965(4) 0.2404(2) 1 0 0.0133(8) 
C2 C3+ 8 c 0.1567(3) 0.0232(4) 0.2342(2) 1 0 0.0137(9) 
O1 O2- 8 c 0.3575(2) 0.2931(3) 0.24650(18) 1 0 0.0188(7) 
O2 O2- 8 c 0.2609(2) 0.0120(3) 0.23533(18) 1 0 0.0196(7) 
O3 O2- 8 c 0.4831(2) -0.0930(3) 0.25979(18) 1 0 0.0177(6) 
O4 O2- 8 c 0.6016(2) 0.1267(2) 0.27015(17) 1 0 0.0166(7) 
O5 O2- 8 c 0.4441(3) 0.0919(4) 0.12514(19) 1 0 0.0280(8) 
O6 O2- 8 c 0.3656(2) 0.0983(3) 0.38976(17) 1 0 0.0206(7) 
O7 O2- 8 c 0.5317(2) 0.1714(3) 0.48040(18) 1 0 0.0197(7) 
O8 O2- 8 c 0.3680(3) 0.0527(3) 0.54972(19) 1 0 0.0198(7) 
O9 O2- 8 c 0.3396(2) 0.2748(3) 0.50074(18) 1 0 0.0204(7) 
O10 O2- 8 c 0.6479(3) 0.4817(4) 0.5666(2) 1 0 0.0341(9) 
P1 P5+ 8 c 0.40593(9) 0.15411(11) 0.47728(6) 1 0 0.0141(3) 
H1 H1+ 8 c 0.392(4) -0.021(5) 0.537(3) 1 0 0.030(14) 
H2 H1+ 8 c 0.507(3) 0.072(6) 0.107(3) 1 0 0.07(2) 
H3 H1+ 8 c 0.412(4) 0.138(4) 0.088(3) 1 0 0.044(17) 
H4 H1+ 8 c 0.649(5) 0.556(3) 0.546(4) 1 0 0.09(3) 
H5 H1+ 8 c 0.712(2) 0.460(5) 0.580(4) 1 0 0.07(2) 

loop_
_atom_site_aniso_label
_atom_site_aniso_type_symbol
_atom_site_aniso_U_11
_atom_site_aniso_U_22
_atom_site_aniso_U_33
_atom_site_aniso_U_12
_atom_site_aniso_U_13
_atom_site_aniso_U_23
K1 K1+ 0.0237(6) 0.0270(6) 0.0229(6) -0.0016(5) 0.0036(5) 0.0010(4)
K2 K1+ 0.0238(6) 0.0240(6) 0.0218(5) -0.0062(5) -0.0019(4) 0.0042(4)
Fe1 Fe2+ 0.0114(3) 0.0116(3) 0.0148(3) 0.0003(3) 0.0008(3) -0.0001(2)
C1 C3+ 0.014(2) 0.015(2) 0.0109(19) 0.0049(19) -0.0016(18) -0.0002(17)
C2 C3+ 0.016(2) 0.015(2) 0.010(2) -0.0037(18) -0.0030(18) -0.0009(17)
O1 O2- 0.0160(16) 0.0100(15) 0.0305(18) -0.0021(12) 0.0014(14) 0.0018(13)
O2 O2- 0.0096(16) 0.0234(17) 0.0258(17) -0.0009(13) -0.0001(13) -0.0054(14)
O3 O2- 0.0104(16) 0.0155(15) 0.0272(17) -0.0010(12) 0.0003(13) 0.0003(13)
O4 O2- 0.0140(16) 0.0120(16) 0.0237(16) -0.0017(12) -0.0001(13) -0.0009(12)
O5 O2- 0.026(2) 0.041(2) 0.0172(17) 0.0137(18) 0.0024(15) 0.0065(15)
O6 O2- 0.0217(17) 0.0284(18) 0.0117(15) -0.0019(14) 0.0005(12) -0.0028(13)
O7 O2- 0.0145(16) 0.0197(17) 0.0249(17) -0.0017(12) 0.0007(13) 0.0014(13)
O8 O2- 0.0246(18) 0.0168(17) 0.0180(17) 0.0022(14) 0.0057(13) 0.0042(14)
O9 O2- 0.0224(17) 0.0155(16) 0.0233(16) 0.0037(13) -0.0026(14) -0.0027(13)
O10 O2- 0.022(2) 0.035(2) 0.045(2) -0.0008(17) 0.0026(18) 0.0151(18)
P1 P5+ 0.0141(6) 0.0156(6) 0.0125(5) 0.0001(5) -0.0003(5) 0.0000(4)
#End of data_159924-ICSD


