data_35194-ICSD
#?2014 by Fachinformationszentrum Karlsruhe, and the U.S. Secretary of 
#Commerce on behalf of the United States.  All rights reserved.
_database_code_ICSD                35194
_audit_creation_date               1982/12/31
_chemical_name_systematic          'Sodium Carbonate Heptahydrate'
_chemical_formula_structural       'Na2 C O3 (H2 O)7'
_chemical_formula_sum              'C1 H14 Na2 O10'
_publ_section_title                'Sodium Carbonate Heptahydrate'
loop_
_citation_id
_citation_journal_abbrev
_citation_year
_citation_journal_volume
_citation_page_first
_citation_page_last
_citation_journal_id_ASTM
primary 'Acta Crystallographica B (24,1968-38,1982)' 1982 38 2802 2804 ACBCAR
_publ_author_name                  'Betzel, C.;Saenger, W.;Loewus, D.'
_cell_length_a                     14.492(7)
_cell_length_b                     19.490(5)
_cell_length_c                     7.017(3)
_cell_angle_alpha                  90.
_cell_angle_beta                   90.
_cell_angle_gamma                  90.
_cell_volume                       1981.95
_cell_formula_units_Z              8
_symmetry_space_group_name_H-M     'P b c a'
_symmetry_Int_Tables_number        61
_refine_ls_R_factor_all            .067
loop_
_symmetry_equiv_pos_site_id
_symmetry_equiv_pos_as_xyz
  1	'x+.5, y, -z+.5'
  2	'x, -y+.5, z+.5'
  3	'-x+.5, y+.5, z'
  4	'-x, -y, -z'
  5	'-x+.5, -y, z+.5'
  6	'-x, y+.5, -z+.5'
  7	'x+.5, -y+.5, -z'
  8	'x, y, z'
loop_
_atom_type_symbol
_atom_type_oxidation_number
C4+	4
H1+	1
Na1+	1
O2-	-2
loop_
_atom_site_label
_atom_site_type_symbol
_atom_site_symmetry_multiplicity
_atom_site_Wyckoff_symbol
_atom_site_fract_x
_atom_site_fract_y
_atom_site_fract_z
_atom_site_occupancy
_atom_site_attached_hydrogens
_atom_site_B_iso_or_equiv
Na1 Na1+ 8 c 0.5119(1) 0.2361(1) 0.0584(3) 1. 0 0 
Na2 Na1+ 8 c 0.4471(1) 0.0577(1) 0.3542(3) 1. 0 0 
O1 O2- 8 c 0.4944(2) 0.1153(1) 0.0531(5) 1. 0 0 
O2 O2- 8 c 0.6250(2) 0.2542(2) -.1885(5) 1. 0 0 
O3 O2- 8 c 0.3959(2) 0.2534(2) 0.3006(5) 1. 0 0 
O4 O2- 8 c 0.3132(2) 0.1282(2) 0.3731(5) 1. 0 0 
O5 O2- 8 c -.0986(2) -.0044(2) 0.8700(5) 1. 0 0 
O6 O2- 8 c 0.0220(2) 0.1379(2) 0.9275(5) 1. 0 0 
O7 O2- 8 c -.1222(2) -.0287(2) 1.3668(5) 1. 0 0 
C1 C4+ 8 c 0.7574(3) 0.1143(2) 0.6033(7) 1. 0 0 
O8 O2- 8 c 0.7039(2) 0.1214(2) -.5433(5) 1. 0 0 
O9 O2- 8 c 0.8304(2) 0.0765(2) 0.5905(5) 1. 0 0 
O10 O2- 8 c -.2392(2) -.1436(2) 1.2591(5) 1. 0 0 
H1 H1+ 8 c 0.540(4) 0.075(3) -.009(8) 1. 0 16. 
H2 H1+ 8 c 0.427(4) 0.096(3) 0.012(8) 1. 0 8. 
H3 H1+ 8 c 0.139(4) 0.204(3) 0.148(8) 1. 0 10. 
H4 H1+ 8 c 0.672(4) 0.212(3) -.241(8) 1. 0 17. 
H5 H1+ 8 c 0.366(4) 0.203(3) 0.339(8) 1. 0 6. 
H6 H1+ 8 c 0.149(4) -.209(3) 0.314(8) 1. 0 12. 
H7 H1+ 8 c 0.269(4) 0.116(3) 0.271(9) 1. 0 5. 
H8 H1+ 8 c 0.291(4) 0.128(3) 0.484(9) 1. 0 11. 
H9 H1+ 8 c 0.147(4) 0.048(3) 0.134(8) 1. 0 16. 
H10 H1+ 8 c 0.108(5) -.033(4) 0.201(8) 1. 0 14. 
H11 H1+ 8 c 0.509(4) 0.177(3) 0.612(9) 1. 0 12. 
H12 H1+ 8 c 0.079(4) 0.134(4) 0.918(8) 1. 0 18. 
H13 H1+ 8 c 0.167(4) 0.071(3) 0.673(8) 1. 0 6. 
H14 H1+ 8 c -.142(4) 0.000(3) 1.444(8) 1. 0 9. 

#End of data_35194-ICSD


