data_241250-ICSD
#?2014 by Fachinformationszentrum Karlsruhe, and the U.S. Secretary of 
#Commerce on behalf of the United States.  All rights reserved.
_database_code_ICSD                241250
_audit_creation_date               2009/02/01
_chemical_name_systematic
;
(sodium Chloride) Urea Water (1/1/1)
;
_chemical_formula_structural       '(Na Cl) (C H4 N2 O) (H2 O)'
_chemical_formula_sum              'C1 H6 Cl1 N2 Na1 O2'
_publ_section_title
;
Rock salt-urea-water (1/1/1) at 293 and 117K
;
loop_
_citation_id
_citation_journal_abbrev
_citation_year
_citation_journal_volume
_citation_journal_issue
_citation_page_first
_citation_page_last
_citation_journal_id_ASTM
primary 'Acta Crystallographica, Section C: Crystal Structure Communications'
 2008 64 8 m300 m304 ACSCEE
_publ_author_name
;
Mueller, S.;Schaefer, O.;Keller, E.
;
_cell_length_a                     6.4374(2)
_cell_length_b                     5.1744(2)
_cell_length_c                     17.2998(5)
_cell_angle_alpha                  90.00
_cell_angle_beta                   90.00
_cell_angle_gamma                  90.00
_cell_volume                       576.25
_cell_formula_units_Z              4
_symmetry_space_group_name_H-M     'P n 21 m'
_symmetry_Int_Tables_number        31
_refine_ls_R_factor_all            .0339
loop_
_symmetry_equiv_pos_site_id
_symmetry_equiv_pos_as_xyz
  1	'-x, y+.5, z+.5'
  2	'-x, y+.5, -z+.5'
  3	'x, y, -z'
  4	'x, y, z'
loop_
_atom_type_symbol
_atom_type_oxidation_number
C4+	4
Cl1-	-1
H1+	1
N3-	-3
Na1+	1
O2-	-2
loop_
_atom_site_label
_atom_site_type_symbol
_atom_site_symmetry_multiplicity
_atom_site_Wyckoff_symbol
_atom_site_fract_x
_atom_site_fract_y
_atom_site_fract_z
_atom_site_occupancy
_atom_site_attached_hydrogens
_atom_site_U_iso_or_equiv
Cl1 Cl1- 4 b 0.26051(4) 0.41551(8) 0.616725(17) 1 0 0.01411(8) 
Na1 Na1+ 2 a 0.51476(11) 0.19051(16) 0.5000 1 0 0.01254(17) 
Na2 Na1+ 2 a -0.00615(11) 0.19552(16) 0.5000 1 0 0.01291(17) 
O1 O2- 2 a 0.25054(19) -0.1198(3) 0.5000 1 0 0.0148(3) 
H1 H1+ 4 b 0.236(2) -0.215(4) 0.5380(8) 1 0 0.030 
O2 O2- 2 a -0.2449(2) 0.5368(3) 0.5000 1 0 0.0142(3) 
H2 H1+ 4 b -0.234(2) 0.631(4) 0.5389(8) 1 0 0.028 
O3 O2- 4 b 0.24513(15) 0.4920(2) 0.91144(6) 1 0 0.0143(2) 
N1 N3- 4 b 0.1363(2) 0.6310(4) 0.79429(7) 1 0 0.0261(3) 
H3 H1+ 4 b 0.0490 0.7409 0.8155 1 0 0.031 
H4 H1+ 4 b 0.1454 0.6201 0.7436 1 0 0.031 
N2 N3- 4 b 0.3852(2) 0.3192(4) 0.80336(7) 1 0 0.0265(3) 
H5 H1+ 4 b 0.4666 0.2178 0.8307 1 0 0.032 
H6 H1+ 4 b 0.3897 0.3141 0.7525 1 0 0.032 
C1 C4+ 4 b 0.2549(2) 0.4807(3) 0.83891(8) 1 0 0.0131(3) 

loop_
_atom_site_aniso_label
_atom_site_aniso_type_symbol
_atom_site_aniso_U_11
_atom_site_aniso_U_22
_atom_site_aniso_U_33
_atom_site_aniso_U_12
_atom_site_aniso_U_13
_atom_site_aniso_U_23
Cl1 Cl1- 0.01587(13) 0.01720(14) 0.00927(11) -0.0034(2) 0.00045(11) 
-0.00067(13)
Na1 Na1+ 0.0095(3) 0.0144(4) 0.0136(4) -0.0007(3) 0.000 0.000
Na2 Na1+ 0.0102(3) 0.0155(4) 0.0130(4) -0.0004(3) 0.000 0.000
O1 O2- 0.0162(6) 0.0129(8) 0.0152(6) -0.0008(7) 0.000 0.000
O2 O2- 0.0170(7) 0.0122(7) 0.0133(6) -0.0004(6) 0.000 0.000
O3 O2- 0.0165(4) 0.0187(5) 0.0076(4) 0.0013(4) 0.0006(4) -0.0008(4)
N1 N3- 0.0280(7) 0.0370(8) 0.0134(6) 0.0173(7) -0.0002(5) 0.0000(6)
N2 N3- 0.0283(7) 0.0371(8) 0.0141(6) 0.0160(6) -0.0009(5) -0.0023(6)
C1 C4+ 0.0131(6) 0.0159(6) 0.0102(5) -0.0012(5) 0.0000(5) 0.0007(5)
#End of data_241250-ICSD


