data_2075-ICSD
#?2014 by Fachinformationszentrum Karlsruhe, and the U.S. Secretary of 
#Commerce on behalf of the United States.  All rights reserved.
_database_code_ICSD                2075
_audit_creation_date               1980/01/01
_audit_update_record               2010/02/01
_chemical_name_systematic          'Potassium Hydrogencarbonate'
_chemical_formula_structural       'K (H C O3)'
_chemical_formula_sum              'C1 H1 K1 O3'
_chemical_name_mineral             Kalicinite
_publ_section_title
;
Hydrogen-bond studies. LXXXIV. An X-ray diffraction study of the 
structures of K H C O3 and K D C O3 at 298, 219, 95 K
;
loop_
_citation_id
_citation_journal_abbrev
_citation_year
_citation_journal_volume
_citation_page_first
_citation_page_last
_citation_journal_id_ASTM
primary 'Acta Crystallographica B (24,1968-38,1982)' 1974 30 1155 1166 ACBCAR
2 'Golden Book of Phase Transitions, Wroclaw' 2002 1 1 123 GBOPT5
_publ_author_name
;
Thomas, J.O.;Tellgren, R.;Olovsson, I.
;
_cell_length_a                     15.1538(20)
_cell_length_b                     5.6186(10)
_cell_length_c                     3.6868(10)
_cell_angle_alpha                  90.
_cell_angle_beta                   104.356(20)
_cell_angle_gamma                  90.
_cell_volume                       304.1
_cell_formula_units_Z              4
_symmetry_space_group_name_H-M     'P 1 21/a 1'
_symmetry_Int_Tables_number        14
_refine_ls_R_factor_all            .028
loop_
_symmetry_equiv_pos_site_id
_symmetry_equiv_pos_as_xyz
  1	'x+.5, -y+.5, z'
  2	'-x, -y, -z'
  3	'-x+.5, y+.5, -z'
  4	'x, y, z'
loop_
_atom_type_symbol
_atom_type_oxidation_number
C4+	4
H1+	1
K1+	1
O2-	-2
loop_
_atom_site_label
_atom_site_type_symbol
_atom_site_symmetry_multiplicity
_atom_site_Wyckoff_symbol
_atom_site_fract_x
_atom_site_fract_y
_atom_site_fract_z
_atom_site_occupancy
_atom_site_attached_hydrogens
_atom_site_B_iso_or_equiv
K1 K1+ 4 e 0.16561(2) 0.03227(7) 0.29500(9) 1. 0 0 
H1 H1+ 4 e 0.016(2) 0.694(6) -.451(7) 1. 0 4.1 
C1 C4+ 4 e 0.11977(10) 0.52253(25) -.14404(48) 1. 0 0 
O1 O2- 4 e 0.19336(7) 0.54380(18) 0.09426(35) 1. 0 0 
O2 O2- 4 e 0.08305(7) 0.32869(21) -.27405(28) 1. 0 0 
O3 O2- 4 e 0.07656(7) 0.72763(19) -.27523(26) 1. 0 0 

#End of data_2075-ICSD


