data_110378-ICSD
#?2014 by Fachinformationszentrum Karlsruhe, and the U.S. Secretary of 
#Commerce on behalf of the United States.  All rights reserved.
_database_code_ICSD                110378
_audit_creation_date               2008/08/01
_audit_update_record               2011/02/01
_chemical_name_systematic
;
Bis(tetramethylammonium) Lithium Diaquahexacyanoferrate(III)
;
_chemical_formula_structural
;
((C H3)4 N)2 Li (Fe (C N)6 (H2 O)2)
;
_chemical_formula_sum              'C14 H28 Fe1 Li1 N8 O2'
_publ_section_title
;
Hydratisierte Cyanoelpasolithe: Bis(tetramethylammonium)-diaqua- 
lithium-hexacyano-metallate(III) des Mangans, Eisens und Cobalts
;
loop_
_citation_id
_citation_journal_abbrev
_citation_year
_citation_journal_volume
_citation_page_first
_citation_page_last
_citation_journal_id_ASTM
primary 'Zeitschrift fuer Naturforschung, B: Chemical Sciences'
 1988 43 1311 1318 ZNBSEN
_publ_author_name                  'Witzel, M.;Ziegler, B.;Babel, D.'
_cell_length_a                     17.128(3)
_cell_length_b                     8.760(1)
_cell_length_c                     16.264(2)
_cell_angle_alpha                  90
_cell_angle_beta                   119.32(1)
_cell_angle_gamma                  90
_cell_volume                       2127.67
_cell_formula_units_Z              4
_symmetry_space_group_name_H-M     'C 1 2/c 1'
_symmetry_Int_Tables_number        15
_refine_ls_R_factor_all            .033
loop_
_symmetry_equiv_pos_site_id
_symmetry_equiv_pos_as_xyz
  1	'x, -y, z+.5'
  2	'-x, -y, -z'
  3	'-x, y, -z+.5'
  4	'x, y, z'
  5	'x+.5, -y+.5, z+.5'
  6	'-x+.5, -y+.5, -z'
  7	'-x+.5, y+.5, -z+.5'
  8	'x+.5, y+.5, z'
loop_
_atom_type_symbol
_atom_type_oxidation_number
C2+	2
C4+	4
Fe3+	3
H1-	-1
H1+	1
Li1+	1
N3-	-3
O2-	-2
loop_
_atom_site_label
_atom_site_type_symbol
_atom_site_symmetry_multiplicity
_atom_site_Wyckoff_symbol
_atom_site_fract_x
_atom_site_fract_y
_atom_site_fract_z
_atom_site_occupancy
_atom_site_attached_hydrogens
Fe1 Fe3+ 4 c 0.25000 0.25000 0.00000 1. 0 
C1 C2+ 8 f 0.3179(1) 0.2752(2) -0.0652(1) 1. 0 
N1 N3- 8 f 0.3586(2) 0.2868(3) -0.1032(2) 1. 0 
C2 C2+ 8 f 0.3457(1) 0.1173(2) 0.0902(1) 1. 0 
N2 N3- 8 f 0.40360 0.04240 0.14300 1. 0 
C3 C2+ 8 f 0.1895(1) 0.0767(3) -0.0821(1) 1. 0 
N3 N3- 8 f 0.1542(2) -0.0230(3) -0.1318(2) 1. 0 
N4 N3- 8 f 0.1218(1) 0.2450(3) 0.6141(1) 1. 0 
C4 C4+ 8 f 0.0934(4) 0.2336(7) 0.5147(3) 1. 0 
H1 H1- 8 f 0.0313(4) 0.2749(7) 0.4771(3) 1. 0 
H2 H1- 8 f 0.0942(4) 0.1241(7) 0.4977(3) 1. 0 
H3 H1- 8 f 0.1350(4) 0.2936(7) 0.5005(3) 1. 0 
C5 C4+ 8 f 0.0600(3) 0.1509(5) 0.6346(3) 1. 0 
H4 H1- 8 f 0.0791(3) 0.1581(5) 0.7033(3) 1. 0 
H5 H1- 8 f 0.0625(3) 0.0420(5) 0.6176(3) 1. 0 
H6 H1- 8 f -0.0026(3) 0.1901(5) 0.5966(3) 1. 0 
C6 C4+ 8 f 0.2136(3) 0.1818(7) 0.6647(5) 1. 0 
H7 H1- 8 f 0.2367(3) 0.1872(7) 0.7342(5) 1. 0 
H8 H1- 8 f 0.2535(3) 0.2426(7) 0.6483(5) 1. 0 
H9 H1- 8 f 0.2127(3) 0.0731(7) 0.6456(5) 1. 0 
C7 C4+ 8 f 0.1216(5) 0.4024(5) 0.6413(6) 1. 0 
H10 H1- 8 f 0.1415(5) 0.4074(5) 0.7102(6) 1. 0 
H11 H1- 8 f 0.0597(5) 0.4450(5) 0.6045(6) 1. 0 
H12 H1- 8 f 0.1635(5) 0.4635(5) 0.6279(6) 1. 0 
Li1 Li1+ 4 e 0.50000 -0.0932(5) 0.25000 1. 0 
O1 O2- 8 f 0.5638(1) -0.2455(3) 0.2200(1) 1. 0 
H13 H1+ 8 f 0.5993(41) -0.2652(62) 0.2049(51) 1. 0 
H14 H1+ 8 f 0.5862(39) -0.3167(70) 0.2661(45) 1. 0 

#End of data_110378-ICSD


