data_34627-ICSD
#?2014 by Fachinformationszentrum Karlsruhe, and the U.S. Secretary of 
#Commerce on behalf of the United States.  All rights reserved.
_database_code_ICSD                34627
_audit_creation_date               1980/01/01
_audit_update_record               2000/12/16
_chemical_name_systematic
;
Trisodium Carbonate Hydrogencarbonate Dihydrate
;
_chemical_formula_structural       'Na3 (C O3) (H C O3) (H2 O)2'
_chemical_formula_sum              'C2 H5 Na3 O8'
_chemical_name_mineral             Trona
_publ_section_title
;
A neutron-diffraction study of sodium sesquicarbonate
;
loop_
_citation_id
_citation_journal_abbrev
_citation_year
_citation_journal_volume
_citation_page_first
_citation_page_last
_citation_journal_id_ASTM
primary 'Acta Crystallographica (1,1948-23,1967)' 1956 9 82 85 ACCRA9
_publ_author_name                  'Bacon, G.E.;Curry, N.A.'
_cell_length_a                     20.40999
_cell_length_b                     3.49
_cell_length_c                     10.31
_cell_angle_alpha                  90.
_cell_angle_beta                   106.3
_cell_angle_gamma                  90.
_cell_volume                       704.87
_cell_formula_units_Z              4
_symmetry_space_group_name_H-M     'C 1 2/c 1'
_symmetry_Int_Tables_number        15
_refine_ls_R_factor_all            .11
loop_
_symmetry_equiv_pos_site_id
_symmetry_equiv_pos_as_xyz
  1	'x, -y, z+.5'
  2	'-x, -y, -z'
  3	'-x, y, -z+.5'
  4	'x, y, z'
  5	'x+.5, -y+.5, z+.5'
  6	'-x+.5, -y+.5, -z'
  7	'-x+.5, y+.5, -z+.5'
  8	'x+.5, y+.5, z'
loop_
_atom_type_symbol
_atom_type_oxidation_number
C4+	4
H1+	1
Na1+	1
O2-	-2
loop_
_atom_site_label
_atom_site_type_symbol
_atom_site_symmetry_multiplicity
_atom_site_Wyckoff_symbol
_atom_site_fract_x
_atom_site_fract_y
_atom_site_fract_z
_atom_site_occupancy
_atom_site_attached_hydrogens
_atom_site_B_iso_or_equiv
Na1 Na1+ 4 e 0 0.748 0.25 1. 0 1.5 
Na2 Na1+ 8 f 0.152 0.165 0.428 1. 0 1.5 
C1 C4+ 8 f 0.093 0.262 0.103 1. 0 1.1 
O1 O2- 8 f 0.151 0.373 0.102 1. 0 1.25 
O2 O2- 8 f 0.055 0.139 0.988 1. 0 1.25 
O3 O2- 8 f 0.074 0.257 0.207 1. 0 1.25 
O4 O2- 8 f 0.212 0.669 0.356 1. 0 2. 
H1 H1+ 4 a 0 0 0 1. 0 3.9 
H2 H1+ 8 f 0.192 0.559 0.259 1. 0 3.9 
H3 H1+ 8 f 0.24 0.242 0.137 1. 0 3.9 

#End of data_34627-ICSD


