data_412853-ICSD
#?2014 by Fachinformationszentrum Karlsruhe, and the U.S. Secretary of 
#Commerce on behalf of the United States.  All rights reserved.
_database_code_ICSD                412853
_audit_creation_date               2003/10/01
_audit_update_record               2007/08/01
_chemical_name_systematic
;
Pentapotassium Tetracarbonatoscandate Pentahydrate
;
_chemical_formula_structural       'K5 (Sc (C O3)4) (H2 O)5'
_chemical_formula_sum              'C4 H10 K5 O17 Sc1'
_publ_section_title
;
Untersuchungen im System (Sc Cl3)/(K2 C O3)/(H2 O): Synthese und 
Kristallstrukturen von K5 (Sc (C O3)4) * 5(H2 O) und K7 (Sc (C O3)4) 
C O3 * 9(H2 O)
;
loop_
_citation_id
_citation_journal_abbrev
_citation_year
_citation_journal_volume
_citation_page_first
_citation_page_last
_citation_journal_id_ASTM
primary 'Zeitschrift fuer Naturforschung, B: Chemical Sciences'
 2002 57 1439 1445 ZNBSEN
_publ_author_name                  'Dahm, A.;Adam, A.'
_cell_length_a                     8.8306(13)
_cell_length_b                     18.262(2)
_cell_length_c                     11.132(2)
_cell_angle_alpha                  90.
_cell_angle_beta                   93.28(2)
_cell_angle_gamma                  90.
_cell_volume                       1792.25
_cell_formula_units_Z              4
_symmetry_space_group_name_H-M     'P 1 21/n 1'
_symmetry_Int_Tables_number        14
_refine_ls_R_factor_all            .0312
loop_
_symmetry_equiv_pos_site_id
_symmetry_equiv_pos_as_xyz
  1	'-x+.5, y+.5, -z+.5'
  2	'-x, -y, -z'
  3	'x+.5, -y+.5, z+.5'
  4	'x, y, z'
loop_
_atom_type_symbol
_atom_type_oxidation_number
C4+	4
H1+	1
K1+	1
O2-	-2
Sc3+	3
loop_
_atom_site_label
_atom_site_type_symbol
_atom_site_symmetry_multiplicity
_atom_site_Wyckoff_symbol
_atom_site_fract_x
_atom_site_fract_y
_atom_site_fract_z
_atom_site_occupancy
_atom_site_attached_hydrogens
_atom_site_U_iso_or_equiv
Sc1 Sc3+ 4 e 0.01834(8) 0.18248(3) 0.21494(6) 1. 0 0.02059(17) 
K1 K1+ 4 e 0.05464(10) 0.23753(4) 0.54014(7) 1. 0 0.0330(2) 
K2 K1+ 4 e 0.28213(10) 0.10664(4) 0.99831(8) 1. 0 0.0350(2) 
K3 K1+ 4 e 0.48430(11) 0.24651(4) 0.39855(7) 1. 0 0.0345(2) 
K4 K1+ 4 e 0.92731(13) 0.05525(5) 0.80191(8) 1. 0 0.0448(3) 
K5 K1+ 4 e 0.77781(12) 0.08440(5) 0.44117(8) 1. 0 0.0456(3) 
O1 O2- 4 e 0.1785(3) 0.23744(12) 0.1007(2) 1. 0 0.0259(6) 
O2 O2- 4 e 0.6769(3) 0.23366(13) 0.7915(2) 1. 0 0.0282(6) 
O3 O2- 4 e 0.8355(3) 0.17491(14) 0.6739(2) 1. 0 0.0390(7) 
O4 O2- 4 e 0.8596(3) 0.23234(13) 0.3394(2) 1. 0 0.0283(6) 
O5 O2- 4 e 0.3558(3) 0.23196(13) 0.6510(2) 1. 0 0.0282(6) 
O6 O2- 4 e 0.2026(3) 0.17686(14) 0.7777(2) 1. 0 0.0366(7) 
O7 O2- 4 e 0.1894(3) 0.09386(13) 0.2246(2) 1. 0 0.0341(7) 
O8 O2- 4 e 0.0784(3) 0.12437(13) 0.3885(2) 1. 0 0.0318(6) 
O9 O2- 4 e 0.2355(3) 0.02758(14) 0.3918(2) 1. 0 0.0397(7) 
O10 O2- 4 e 0.9639(3) 0.12953(12) 0.0332(2) 1. 0 0.0267(6) 
O11 O2- 4 e 0.8458(3) 0.09734(14) 0.1929(2) 1. 0 0.0356(7) 
O12 O2- 4 e 0.8016(3) 0.03493(14) 0.0214(2) 1. 0 0.0416(7) 
O13 O2- 4 e 0.5331(5) 0.1486(2) 0.2027(3) 1. 0 0.0607(12) 
O14 O2- 4 e 0.4852(5) 0.1146(3) 0.5147(4) 1. 0 0.0600(11) 
O15 O2- 4 e 0.1298(6) 0.06033(18) 0.6309(4) 1. 0 0.0657(12) 
O16 O2- 4 e 0.5570(4) 0.1112(2) 0.8984(4) 1. 0 0.0594(10) 
O17 O2- 4 e 0.5096(6) 0.0028(2) 0.2874(5) 1. 0 0.1095(17) 
C1 C4+ 4 e 0.7341(4) 0.22139(18) 0.6869(3) 1. 0 0.0234(8) 
C2 C4+ 4 e 0.3028(4) 0.2237(2) 0.7581(3) 1. 0 0.0263(9) 
C3 C4+ 4 e 0.1709(5) 0.08088(19) 0.3374(3) 1. 0 0.0285(9) 
C4 C4+ 4 e 0.8677(4) 0.08542(18) 0.0806(3) 1. 0 0.0254(8) 
H1 H1+ 4 e 0.520(6) 0.116(3) 0.218(4) 1. 0 0.037(16) 
H2 H1+ 4 e 0.6403 0.1310 0.1993 1. 0 0 
H3 H1+ 4 e 0.454(7) 0.086(3) 0.498(5) 1. 0 0.05(2) 
H4 H1+ 4 e 0.4869 0.0764 0.5790 1. 0 0 
H5 H1+ 4 e 0.221(10) 0.060(4) 0.674(7) 1. 0 0.13(4) 
H6 H1+ 4 e 0.145(10) 0.071(4) 0.539(8) 1. 0 0.17(3) 
H7 H1+ 4 e 0.624(5) 0.088(2) 0.932(3) 1. 0 0.026(12) 
H8 H1+ 4 e 0.607(7) 0.148(3) 0.864(5) 1. 0 0.09(2) 
H9 H1+ 4 e 0.606(6) 0.007(2) 0.237(4) 1. 0 0.052(13) 
H10 H1+ 4 e 0.5126 0.0353 0.7747 1. 0 0 

loop_
_atom_site_aniso_label
_atom_site_aniso_type_symbol
_atom_site_aniso_U_11
_atom_site_aniso_U_22
_atom_site_aniso_U_33
_atom_site_aniso_U_12
_atom_site_aniso_U_13
_atom_site_aniso_U_23
Sc1 Sc3+ 0.0242(4) 0.0229(3) 0.0147(3) -0.0016(3) 0.0007(3) 0.0008(3)
K1 K1+ 0.0368(6) 0.0356(5) 0.0261(4) 0.0035(4) -0.0036(4) -0.0054(3)
K2 K1+ 0.0343(6) 0.0327(4) 0.0392(5) -0.0037(4) 0.0113(4) -0.0024(4)
K3 K1+ 0.0391(6) 0.0332(5) 0.0306(5) 0.0048(4) -0.0041(4) -0.0057(3)
K4 K1+ 0.0759(8) 0.0311(5) 0.0279(5) -0.0017(4) 0.0061(5) -0.0008(4)
K5 K1+ 0.0441(7) 0.0489(6) 0.0452(6) 0.0049(4) 0.0151(5) 0.0150(4)
O1 O2- 0.0277(16) 0.0276(13) 0.0224(13) -0.0010(10) 0.0023(11) -0.0053(11)
O2 O2- 0.0291(17) 0.0340(14) 0.0214(13) 0.0045(11) 0.0005(11) 0.0053(10)
O3 O2- 0.0321(18) 0.0362(15) 0.0490(17) 0.0128(13) 0.0060(14) 0.0066(13)
O4 O2- 0.0312(17) 0.0379(14) 0.0158(12) 0.0052(11) 0.0006(11) 0.0049(10)
O5 O2- 0.0286(17) 0.0367(14) 0.0194(13) -0.0035(11) 0.0022(11) -0.0050(10)
O6 O2- 0.0319(18) 0.0421(15) 0.0363(15) -0.0143(13) 0.0061(13) 0.0004(12)
O7 O2- 0.0453(19) 0.0335(14) 0.0237(14) 0.0105(12) 0.0040(12) 0.0029(11)
O8 O2- 0.0403(18) 0.0337(14) 0.0212(13) 0.0055(12) 0.0002(12) 0.0017(11)
O9 O2- 0.046(2) 0.0311(15) 0.0412(16) 0.0071(13) -0.0050(14) 0.0111(12)
O10 O2- 0.0336(17) 0.0267(13) 0.0198(13) -0.0085(11) 0.0014(11) 0.0003(10)
O11 O2- 0.0462(19) 0.0386(15) 0.0224(14) -0.0179(13) 0.0055(12) -0.0030(11)
O12 O2- 0.054(2) 0.0323(15) 0.0389(16) -0.0193(13) 0.0055(14) -0.0131(12)
O13 O2- 0.096(3) 0.037(2) 0.050(2) -0.006(2) 0.0145(19) 0.0063(17)
O14 O2- 0.048(3) 0.059(3) 0.073(3) -0.010(2) 0.0049(19) 0.012(2)
O15 O2- 0.101(4) 0.050(2) 0.048(2) -0.005(2) 0.025(2) 0.0008(16)
O16 O2- 0.036(2) 0.066(2) 0.077(3) 0.0076(19) 0.0099(19) 0.032(2)
O17 O2- 0.112(4) 0.074(3) 0.145(5) 0.002(3) 0.031(4) 0.017(3)
C1 C4+ 0.020(2) 0.0222(18) 0.027(2) -0.0040(16) -0.0010(17) 0.0023(15)
C2 C4+ 0.022(2) 0.034(2) 0.023(2) 0.0079(17) 0.0013(17) 0.0024(16)
C3 C4+ 0.033(3) 0.026(2) 0.027(2) -0.0045(16) -0.0032(18) 0.0012(15)
C4 C4+ 0.029(2) 0.0241(19) 0.0229(19) 0.0010(16) -0.0003(17) 0.0006(15)
#End of data_412853-ICSD


