data_290275-ICSD
#?2014 by Fachinformationszentrum Karlsruhe, and the U.S. Secretary of 
#Commerce on behalf of the United States.  All rights reserved.
_database_code_ICSD                290275
_audit_creation_date               2013/08/01
_chemical_name_systematic
;
Lithium (dimethylamino)dimethylborane
;
_chemical_formula_structural       'Li (C H3)2 N (B H3)2'
_chemical_formula_sum              'C2 H12 B2 Li1 N1'
_publ_section_title
;
Stoichiometric and catalytic reactions of Li Al H4 with Me2 N H B H3
;
loop_
_citation_id
_citation_journal_abbrev
_citation_year
_citation_journal_volume
_citation_journal_issue
_citation_page_first
_citation_page_last
_citation_journal_id_ASTM
primary 'Dalton Transactions' 2013 42 18 6337 6343 DTARAF
_publ_author_name
;
Less, R.J.;Simmonds, H.R.;Dane, S.B.J.;Wright, D.S.
;
_cell_length_a                     23.9585(8)
_cell_length_b                     17.9749(4)
_cell_length_c                     12.0272(3)
_cell_angle_alpha                  90.00
_cell_angle_beta                   90.00
_cell_angle_gamma                  90.00
_cell_volume                       5179.53
_cell_formula_units_Z              32
_symmetry_space_group_name_H-M     'P n n a'
_symmetry_Int_Tables_number        52
_refine_ls_R_factor_all            .0619
loop_
_symmetry_equiv_pos_site_id
_symmetry_equiv_pos_as_xyz
  1	'x+.5, -y+.5, z+.5'
  2	'-x, y+.5, z+.5'
  3	'x+.5, y, -z'
  4	'-x, -y, -z'
  5	'-x+.5, y+.5, -z+.5'
  6	'x, -y+.5, -z+.5'
  7	'-x+.5, -y, z'
  8	'x, y, z'
loop_
_atom_type_symbol
_atom_type_oxidation_number
B3+	3
C4+	4
H1-	-1
Li1+	1
N3-	-3
loop_
_atom_site_label
_atom_site_type_symbol
_atom_site_symmetry_multiplicity
_atom_site_Wyckoff_symbol
_atom_site_fract_x
_atom_site_fract_y
_atom_site_fract_z
_atom_site_occupancy
_atom_site_attached_hydrogens
_atom_site_U_iso_or_equiv
Li1 Li1+ 4 c 0.2500 0.0000 0.7863(5) 1 0 0.0483(14) 
Li2 Li1+ 8 e 0.15071(17) 0.0913(2) 0.5186(3) 1 0 0.0512(11) 
Li3 Li1+ 8 e 0.31141(16) 0.12135(19) 0.3799(3) 1 0 0.0437(10) 
Li4 Li1+ 8 e 0.37400(17) 0.3373(2) 0.4416(4) 1 0 0.0579(12) 
Li5 Li1+ 4 d 0.5151(2) 0.2500 0.2500 1 0 0.0474(14) 
N1 N3- 8 e 0.24692(7) 0.24039(8) 0.49597(14) 1 0 0.0334(5) 
B1 B3+ 8 e 0.22000(11) 0.17350(13) 0.4332(2) 1 0 0.0364(6) 
H1 H1- 8 e 0.1793 0.1766 0.4390 1 0 0.055 
H2 H1- 8 e 0.2329 0.1268 0.4663 1 0 0.055 
H3 H1- 8 e 0.2309 0.1751 0.3547 1 0 0.055 
B2 B3+ 8 e 0.31235(11) 0.23483(13) 0.4873(2) 1 0 0.0386(7) 
H4 H1- 8 e 0.3294 0.2766 0.5272 1 0 0.058 
H5 H1- 8 e 0.3235 0.2366 0.4089 1 0 0.058 
H6 H1- 8 e 0.3249 0.1879 0.5203 1 0 0.058 
C1 C4+ 8 e 0.23091(11) 0.23980(12) 0.61486(19) 1 0 0.0500(7) 
H7 H1- 8 e 0.1902 0.2427 0.6213 1 0 0.075 
H8 H1- 8 e 0.2478 0.2826 0.6525 1 0 0.075 
H9 H1- 8 e 0.2441 0.1937 0.6495 1 0 0.075 
C2 C4+ 8 e 0.22775(10) 0.31160(11) 0.4465(2) 1 0 0.0473(7) 
H10 H1- 8 e 0.1870 0.3149 0.4519 1 0 0.071 
H11 H1- 8 e 0.2389 0.3137 0.3682 1 0 0.071 
H12 H1- 8 e 0.2447 0.3533 0.4868 1 0 0.071 
N2 N3- 8 e 0.12683(7) -0.00187(9) 0.77797(15) 1 0 0.0351(5) 
B3 B3+ 8 e 0.16496(13) -0.05936(15) 0.8417(3) 1 0 0.0500(8) 
H13 H1- 8 e 0.1414 -0.0949 0.8819 1 0 0.075 
H14 H1- 8 e 0.1888 -0.0327 0.8946 1 0 0.075 
H15 H1- 8 e 0.1883 -0.0861 0.7881 1 0 0.075 
B4 B3+ 8 e 0.16410(12) 0.05520(14) 0.7125(2) 1 0 0.0407(7) 
H16 H1- 8 e 0.1401 0.0904 0.6727 1 0 0.061 
H17 H1- 8 e 0.1875 0.0284 0.6590 1 0 0.061 
H18 H1- 8 e 0.1879 0.0824 0.7648 1 0 0.061 
C3 C4+ 8 e 0.08951(10) -0.04163(14) 0.6997(2) 1 0 0.0548(7) 
H19 H1- 8 e 0.0673 -0.0054 0.6579 1 0 0.082 
H20 H1- 8 e 0.0646 -0.0746 0.7415 1 0 0.082 
H21 H1- 8 e 0.1120 -0.0712 0.6479 1 0 0.082 
C4 C4+ 8 e 0.09189(11) 0.03821(14) 0.8589(2) 1 0 0.0596(8) 
H22 H1- 8 e 0.0686 0.0746 0.8198 1 0 0.089 
H23 H1- 8 e 0.1159 0.0641 0.9124 1 0 0.089 
H24 H1- 8 e 0.0680 0.0027 0.8983 1 0 0.089 
N3 N3- 8 e 0.37760(7) 0.00907(9) 0.25649(15) 1 0 0.0334(5) 
B5 B3+ 8 e 0.37207(11) 0.01257(13) 0.3871(2) 1 0 0.0381(7) 
H25 H1- 8 e 0.3928 -0.0288 0.4203 1 0 0.057 
H26 H1- 8 e 0.3326 0.0089 0.4079 1 0 0.057 
H27 H1- 8 e 0.3874 0.0598 0.4141 1 0 0.057 
B6 B3+ 8 e 0.34440(11) 0.07543(13) 0.2032(2) 1 0 0.0384(7) 
H28 H1- 8 e 0.3478 0.0732 0.1220 1 0 0.058 
H29 H1- 8 e 0.3597 0.1227 0.2301 1 0 0.058 
H30 H1- 8 e 0.3050 0.0718 0.2241 1 0 0.058 
C5 C4+ 8 e 0.35480(10) -0.06205(11) 0.2141(2) 1 0 0.0476(7) 
H31 H1- 8 e 0.3605 -0.0648 0.1335 1 0 0.071 
H32 H1- 8 e 0.3148 -0.0647 0.2306 1 0 0.071 
H33 H1- 8 e 0.3740 -0.1037 0.2501 1 0 0.071 
C6 C4+ 8 e 0.43713(9) 0.01326(12) 0.2261(2) 1 0 0.0489(7) 
H34 H1- 8 e 0.4409 0.0107 0.1450 1 0 0.073 
H35 H1- 8 e 0.4573 -0.0284 0.2600 1 0 0.073 
H36 H1- 8 e 0.4528 0.0603 0.2529 1 0 0.073 
N4 N3- 8 e 0.50827(7) 0.24868(9) 0.50121(14) 1 0 0.0364(5) 
B7 B3+ 8 e 0.47255(11) 0.30263(14) 0.4272(2) 1 0 0.0404(7) 
H37 H1- 8 e 0.4501 0.3351 0.4751 1 0 0.061 
H38 H1- 8 e 0.4478 0.2735 0.3792 1 0 0.061 
H39 H1- 8 e 0.4974 0.3330 0.3812 1 0 0.061 
B8 B3+ 8 e 0.54442(12) 0.19653(14) 0.4234(2) 1 0 0.0456(7) 
H40 H1- 8 e 0.5667 0.1627 0.4693 1 0 0.068 
H41 H1- 8 e 0.5693 0.2271 0.3776 1 0 0.068 
H42 H1- 8 e 0.5196 0.1675 0.3753 1 0 0.068 
C7 C4+ 8 e 0.47152(10) 0.20334(13) 0.5729(2) 1 0 0.0534(7) 
H43 H1- 8 e 0.4496 0.2361 0.6212 1 0 0.080 
H44 H1- 8 e 0.4943 0.1699 0.6186 1 0 0.080 
H45 H1- 8 e 0.4462 0.1739 0.5263 1 0 0.080 
C8 C4+ 8 e 0.54610(10) 0.29303(13) 0.5732(2) 1 0 0.0531(7) 
H46 H1- 8 e 0.5239 0.3258 0.6211 1 0 0.080 
H47 H1- 8 e 0.5709 0.3232 0.5266 1 0 0.080 
H48 H1- 8 e 0.5685 0.2594 0.6194 1 0 0.080 

loop_
_atom_site_aniso_label
_atom_site_aniso_type_symbol
_atom_site_aniso_U_11
_atom_site_aniso_U_22
_atom_site_aniso_U_33
_atom_site_aniso_U_12
_atom_site_aniso_U_13
_atom_site_aniso_U_23
Li1 Li1+ 0.043(3) 0.050(3) 0.051(4) 0.003(3) 0.000 0.000
Li2 Li1+ 0.065(3) 0.050(2) 0.039(2) -0.015(2) -0.005(2) 0.0062(19)
Li3 Li1+ 0.049(2) 0.041(2) 0.042(2) 0.0061(17) 0.000(2) -0.0044(17)
Li4 Li1+ 0.041(2) 0.052(2) 0.081(3) -0.0063(19) -0.008(2) 0.024(2)
Li5 Li1+ 0.051(4) 0.042(3) 0.049(4) 0.000 0.000 0.008(3)
N1 N3- 0.0433(12) 0.0270(9) 0.0298(10) -0.0017(8) 0.0037(9) 0.0002(7)
B1 B3+ 0.0385(16) 0.0382(14) 0.0324(15) -0.0029(12) 0.0026(13) -0.0006(12)
B2 B3+ 0.0453(17) 0.0318(14) 0.0387(16) -0.0033(11) -0.0024(13) -0.0006(11)
C1 C4+ 0.0697(17) 0.0469(14) 0.0335(14) -0.0080(12) 0.0130(13) -0.0052(11)
C2 C4+ 0.0529(16) 0.0331(13) 0.0560(17) 0.0049(11) 0.0024(13) 0.0061(11)
N2 N3- 0.0353(11) 0.0369(10) 0.0331(11) 0.0034(8) 0.0026(9) 0.0005(8)
B3 B3+ 0.0527(19) 0.0487(16) 0.0487(19) 0.0025(13) 0.0066(16) 0.0172(14)
B4 B3+ 0.0455(17) 0.0385(14) 0.0382(17) 0.0031(12) -0.0041(14) 0.0051(12)
C3 C4+ 0.0485(16) 0.0632(16) 0.0527(17) -0.0151(13) -0.0021(14) 0.0003(13)
C4 C4+ 0.0573(18) 0.0659(17) 0.0556(18) 0.0149(13) 0.0178(15) -0.0042(14)
N3 N3- 0.0332(11) 0.0296(10) 0.0373(11) -0.0026(7) 0.0048(9) -0.0008(8)
B5 B3+ 0.0438(17) 0.0319(14) 0.0385(16) -0.0003(11) -0.0009(14) 0.0028(11)
B6 B3+ 0.0425(17) 0.0373(15) 0.0356(16) -0.0019(12) 0.0036(13) 0.0011(12)
C5 C4+ 0.0630(17) 0.0341(13) 0.0458(16) -0.0077(11) 0.0089(13) -0.0074(11)
C6 C4+ 0.0406(15) 0.0499(15) 0.0563(18) 0.0028(11) 0.0096(13) 0.0071(12)
N4 N3- 0.0353(11) 0.0370(10) 0.0369(11) -0.0011(8) -0.0022(9) 0.0042(9)
B7 B3+ 0.0385(17) 0.0392(15) 0.0436(17) 0.0001(12) 0.0019(14) 0.0014(12)
B8 B3+ 0.0466(18) 0.0446(16) 0.0456(18) 0.0096(13) -0.0018(15) 0.0052(13)
C7 C4+ 0.0527(17) 0.0609(16) 0.0465(17) -0.0028(12) 0.0061(14) 0.0160(12)
C8 C4+ 0.0499(16) 0.0599(16) 0.0497(17) -0.0010(12) -0.0139(13) -0.0068(12)
#End of data_290275-ICSD


