data_261018-ICSD
#?2014 by Fachinformationszentrum Karlsruhe, and the U.S. Secretary of 
#Commerce on behalf of the United States.  All rights reserved.
_database_code_ICSD                261018
_audit_creation_date               2011/02/01
_chemical_name_systematic
;
Tetrapotassium Trioxo Decacyano Ditungstate Tetrahydrate
;
_chemical_formula_structural       'K4 (W2 (C N)10 O3) (H2 O)4'
_chemical_formula_sum              'C10 H8 K4 N10 O7 W2'
_publ_section_title
;
Crystal structure of the complex K4 [W2 (C N)10 O3] * 4 H2 O
;
loop_
_citation_id
_citation_journal_abbrev
_citation_year
_citation_journal_volume
_citation_journal_issue
_citation_page_first
_citation_page_last
_citation_journal_id_ASTM
primary 'Chemistry of Metals and Alloys' 2009 1 1-2 25 29 CMEAL3
_publ_author_name
;
Typilo, I.;Sereda, O.;Stoeckli-Evans, H.;Semenyshyn, 
D.;Gladyshevskii, R.
;
_cell_length_a                     8.7910(8)
_cell_length_b                     8.8424(8)
_cell_length_c                     9.4743(9)
_cell_angle_alpha                  82.316(11)
_cell_angle_beta                   64.843(10)
_cell_angle_gamma                  64.945(10)
_cell_volume                       602.92
_cell_formula_units_Z              1
_symmetry_space_group_name_H-M     'P -1'
_symmetry_Int_Tables_number        2
_refine_ls_R_factor_all            .0236
loop_
_symmetry_equiv_pos_site_id
_symmetry_equiv_pos_as_xyz
  1	'-x, -y, -z'
  2	'x, y, z'
loop_
_atom_type_symbol
_atom_type_oxidation_number
C2+	2
H1+	1
K1+	1
N3-	-3
O2-	-2
W6+	6
loop_
_atom_site_label
_atom_site_type_symbol
_atom_site_symmetry_multiplicity
_atom_site_Wyckoff_symbol
_atom_site_fract_x
_atom_site_fract_y
_atom_site_fract_z
_atom_site_occupancy
_atom_site_attached_hydrogens
_atom_site_U_iso_or_equiv
K1 K1+ 2 i 0.32902(16) 0.41507(16) 0.21352(13) 1. 0 0.0307(3) 
K2 K1+ 2 i 0.56862(17) 0.26959(17) 0.59955(14) 1. 0 0.0367(4) 
W1 W6+ 2 i 0.09248(2) 0.11461(2) 0.08357(2) 1. 0 0.0158(1) 
C1 C2+ 2 i 0.0444(6) 0.3019(6) 0.9137(5) 1. 0 0.0220(14) 
C2 C2+ 2 i 0.2834(6) 0.8641(6) 0.1016(5) 1. 0 0.0191(14) 
C3 C2+ 2 i 0.3391(6) 0.0382(6) 0.8659(5) 1. 0 0.0230(12) 
C4 C2+ 2 i 0.8079(6) 0.3002(6) 0.01952(5) 1. 0 0.0218(14) 
C5 C2+ 2 i 0.9560(6) 0.0209(6) 0.3053(5) 1. 0 0.0221(14) 
N1 N3- 2 i 0.0209(6) 0.3914(5) 0.8189(5) 1. 0 0.0297(12) 
N2 N3- 2 i 0.1174(6) 0.0304(6) 0.5814(5) 1. 0 0.0292(14) 
N3 N3- 2 i 0.3802(6) 0.7279(6) 0.1073(5) 1. 0 0.0271(12) 
N4 N3- 2 i 0.5324(6) 0.0031(6) 0.2483(5) 1. 0 0.0326(14) 
N5 N3- 2 i 0.6597(6) 0.3942(6) 0.2581(5) 1. 0 0.0298(12) 
O1 O2- 2 i 0.1316(5) 0.6394(5) 0.4826(4) 1. 0 0.0352(12) 
O2 O2- 2 i 0.1732(5) 0.2134(4) 0.1637(4) 1. 0 0.0245(11) 
O3 O2- 2 i 0.3214(5) 0.2633(5) 0.4959(4) 1. 0 0.0364(12) 
O4 O2- 1 a 0 0 0 1. 0 0.0195(14) 
H1 H1+ 2 i 0.0316 0.7255 0.4905 1. 0 0.053 
H2 H1+ 2 i 0.1023 0.5936 0.5711 1. 0 0.053 
H3 H1+ 2 i 0.2376 0.2574 0.5859 1. 0 0.054 
H4 H1+ 2 i 0.3633 0.1605 0.4575 1. 0 0.054 

#End of data_261018-ICSD


